 convert from PWmat
           1
   12.3000001900000       0.000000000000000E+000  0.000000000000000E+000
  -6.15000010000000        10.6521126300000       0.000000000000000E+000
  0.000000000000000E+000  0.000000000000000E+000   20.0000000000000     
 C  Ni O  H  
    48     1     2     1 
 DIRECT
 9.452570000000000E-004  1.700714000000000E-003  8.163102999999999E-002 T T T
 6.696171400000001E-002  0.134712219000000       8.108797399999999E-002 T T T
 0.201193230000000       1.150216000000000E-003  8.356474699999999E-002 T T T
 0.267424337000000       0.134769805000000       8.288548000000000E-002 T T T
 0.401211351000000       1.857132000000000E-003  8.576481499999999E-002 T T T
 0.467173701000000       0.135855808000000       8.486803100000000E-002 T T T
 0.600990823000000       2.864179000000000E-003  8.507041700000000E-002 T T T
 0.667195109000000       0.136378196000000       8.407771700000000E-002 T T T
 0.801257346000000       2.626405000000000E-003  8.195550800000000E-002 T T T
 0.867336428000000       0.135699883000000       8.156274099999999E-002 T T T
 3.433340000000000E-004  0.201612504000000       8.100625300000000E-002 T T T
 6.655233300000001E-002  0.335048344000000       8.113502800000000E-002 T T T
 0.200373063000000       0.200781513000000       8.143620800000000E-002 T T T
 0.266818955000000       0.333709540000000       8.122044100000000E-002 T T T
 0.400289914000000       0.202875810000000       8.423901000000000E-002 T T T
 0.465602747000000       0.337667930000000       8.610527300000000E-002 T T T
 0.600321520000000       0.202880978000000       8.508054800000001E-002 T T T
 0.666385973000000       0.336651009000000       8.635145900000001E-002 T T T
 0.800481649000000       0.202711060000000       8.274428800000000E-002 T T T
 0.866859208000000       0.335947417000000       8.323219400000000E-002 T T T
 5.370660000000000E-004  0.402135887000000       8.241825000000000E-002 T T T
 6.873322799999999E-002  0.535006184000000       8.376924299999999E-002 T T T
 0.199558488000000       0.401377607000000       8.088220600000000E-002 T T T
 0.269137586000000       0.532977817000000       8.442816300000000E-002 T T T
 0.398236391000000       0.402792215000000       8.556016299999999E-002 T T T
 0.599670822000000       0.403025160000000       8.837684300000000E-002 T T T
 0.665170715000000       0.536907345000000       8.979436400000000E-002 T T T
 0.800256383000000       0.402708999000000       8.526061400000000E-002 T T T
 0.867259258000000       0.535797729000000       8.540556200000000E-002 T T T
 1.376997000000000E-003  0.601704400000000       8.457869000000000E-002 T T T
 6.823234800000000E-002  0.734810810000000       8.489294000000000E-002 T T T
 0.203736096000000       0.600353078000000       8.552905399999999E-002 T T T
 0.268631207000000       0.734360207000000       8.867362099999999E-002 T T T
 0.470770350000000       0.736616324000000       9.498833900000000E-002 T T T
 0.601268633000000       0.605180323000000       9.289619500000000E-002 T T T
 0.668850104000000       0.736292834000000       8.731908600000000E-002 T T T
 0.800012908000000       0.602584762000000       8.673526300000001E-002 T T T
 0.867943658000000       0.735407462000000       8.469890500000000E-002 T T T
 1.562141000000000E-003  0.801571134000000       8.390506800000000E-002 T T T
 6.791937600000000E-002  0.934816345000000       8.283607300000000E-002 T T T
 0.202031902000000       0.800871283000000       8.649325700000000E-002 T T T
 0.268061021000000       0.934707565000000       8.562603200000000E-002 T T T
 0.402546617000000       0.800296230000000       9.092359400000000E-002 T T T
 0.468172215000000       0.934974969000000       8.727619100000000E-002 T T T
 0.601657648000000       0.803926255000000       8.787759500000000E-002 T T T
 0.667931778000000       0.936688300000000       8.396827900000001E-002 T T T
 0.801782606000000       0.802379789000000       8.380018900000000E-002 T T T
 0.867887089000000       0.935743608000000       8.197695500000000E-002 T T T
 0.435280065000000       0.569313715000000       0.116678575000000      T T T
 0.468434674000000       0.608902313000000       0.205927664000000      T T T
 0.535780791000000       0.556949440000000       0.240810810000000      T T T
 0.598912474000000       0.631058071000000       0.264599860000000      T T T
