 convert from PWmat
           1
   12.3000001900000       0.000000000000000E+000  0.000000000000000E+000
  -6.15000010000000        10.6521126300000       0.000000000000000E+000
  0.000000000000000E+000  0.000000000000000E+000   20.0000000000000     
 C  Ni 
    48     1 
 DIRECT
 2.277916000000000E-003  1.620842000000000E-003  7.947413500000000E-002 T T T
 6.624915300000001E-002  0.133552759000000       7.939062900000000E-002 T T T
 0.202427468000000       2.641490000000000E-004  8.260646900000000E-002 T T T
 0.267325569000000       0.133382822000000       8.304494200000000E-002 T T T
 0.402489375000000       2.079916000000000E-003  8.551746900000000E-002 T T T
 0.467299320000000       0.136181697000000       8.506096300000000E-002 T T T
 0.602473501000000       4.859950000000000E-003  8.436560100000000E-002 T T T
 0.667347923000000       0.137937722000000       8.289938299999999E-002 T T T
 0.803462761000000       4.584175000000000E-003  8.031172800000000E-002 T T T
 0.867441540000000       0.136526775000000       7.943431500000001E-002 T T T
 -6.295310000000000E-004  0.200511752000000       7.931739100000000E-002 T T T
 6.365574300000000E-002  0.332825845000000       8.161695500000000E-002 T T T
 0.198552898000000       0.197838746000000       8.177085200000000E-002 T T T
 0.262108954000000       0.328906796000000       8.508642399999999E-002 T T T
 0.400066344000000       0.202844575000000       8.535118700000000E-002 T T T
 0.463588923000000       0.337430824000000       8.795801000000000E-002 T T T
 0.600260626000000       0.204552289000000       8.452804100000000E-002 T T T
 0.665514080000000       0.338539173000000       8.554443300000000E-002 T T T
 0.800383328000000       0.203611302000000       8.111103000000000E-002 T T T
 0.866048396000000       0.336668842000000       8.228181000000000E-002 T T T
 -8.185150000000000E-004  0.401577111000000       8.277561600000000E-002 T T T
 6.864582200000000E-002  0.534318650000000       8.517894299999999E-002 T T T
 0.194706800000000       0.396377974000000       8.506336500000000E-002 T T T
 0.266418669000000       0.527708942000000       8.991135900000000E-002 T T T
 0.393454318000000       0.400614419000000       8.980578300000000E-002 T T T
 0.598558007000000       0.405503218000000       8.831377700000000E-002 T T T
 0.666664357000000       0.540437745000000       8.957790800000000E-002 T T T
 0.799479857000000       0.403758407000000       8.435461000000000E-002 T T T
 0.867865497000000       0.536710140000000       8.495925800000000E-002 T T T
 1.962797000000000E-003  0.601517472000000       8.476867200000000E-002 T T T
 7.035005100000000E-002  0.734469739000000       8.450247200000000E-002 T T T
 0.203230993000000       0.597840342000000       8.807869400000000E-002 T T T
 0.271306608000000       0.732796902000000       8.869417200000000E-002 T T T
 0.476439194000000       0.737838960000000       9.373926300000000E-002 T T T
 0.603608516000000       0.610610165000000       9.343361800000000E-002 T T T
 0.675255498000000       0.742013055000000       8.848731800000000E-002 T T T
 0.801206878000000       0.603914534000000       8.630945399999999E-002 T T T
 0.870649806000000       0.736651531000000       8.397528899999999E-002 T T T
 3.741823000000000E-003  0.801542499000000       8.279152200000001E-002 T T T
 6.938496900000000E-002  0.934589599000000       8.122193699999999E-002 T T T
 0.204322353000000       0.799732189000000       8.590129300000000E-002 T T T
 0.269529320000000       0.933707758000000       8.485317500000000E-002 T T T
 0.406260270000000       0.800910372000000       9.009269800000000E-002 T T T
 0.469743471000000       0.935455224000000       8.689589500000000E-002 T T T
 0.607828367000000       0.809460274000000       8.866025800000001E-002 T T T
 0.671230866000000       0.940350624000000       8.366332700000000E-002 T T T
 0.806158257000000       0.805400667000000       8.342642000000000E-002 T T T
 0.870353499000000       0.937638884000000       8.025573400000000E-002 T T T
 0.434780171000000       0.568976874000000       9.806550600000000E-002 T T T
