 convert from PWmat
           1
   12.3000001900000       0.000000000000000E+000  0.000000000000000E+000
  -6.15000010000000        10.6521126300000       0.000000000000000E+000
  0.000000000000000E+000  0.000000000000000E+000   20.0000000000000     
 C  Ni O  
    48     1     1 
 DIRECT
 1.681132000000000E-003  2.370949000000000E-003  7.996680900000000E-002 T T T
 6.784438000000000E-002  0.135544480000000       7.956213500000001E-002 T T T
 0.201988607000000       2.050537000000000E-003  8.294127100000000E-002 T T T
 0.268284298000000       0.135730061000000       8.255381800000000E-002 T T T
 0.401865356000000       2.355774000000000E-003  8.536328100000000E-002 T T T
 0.467906841000000       0.136488839000000       8.497507600000000E-002 T T T
 0.601527454000000       3.006119000000000E-003  8.376969400000001E-002 T T T
 0.667827164000000       0.136674561000000       8.332433600000000E-002 T T T
 0.801703910000000       2.889303000000000E-003  7.992607200000000E-002 T T T
 0.867941916000000       0.136134194000000       7.992200100000001E-002 T T T
 1.099357000000000E-003  0.202287562000000       7.954579300000000E-002 T T T
 6.740245200000000E-002  0.335853769000000       8.074619900000000E-002 T T T
 0.201427777000000       0.201869444000000       8.078304900000000E-002 T T T
 0.267798683000000       0.335028865000000       8.149771000000000E-002 T T T
 0.401156094000000       0.203788790000000       8.474719999999999E-002 T T T
 0.466777708000000       0.338766737000000       8.718258100000000E-002 T T T
 0.601091576000000       0.203310971000000       8.509309100000000E-002 T T T
 0.667240046000000       0.337039225000000       8.667005100000000E-002 T T T
 0.801135915000000       0.203107884000000       8.179818699999999E-002 T T T
 0.867604880000000       0.336430215000000       8.293103700000000E-002 T T T
 1.273620000000000E-003  0.402723328000000       8.251301500000000E-002 T T T
 6.933339400000001E-002  0.535601848000000       8.468391100000000E-002 T T T
 0.200576396000000       0.402243378000000       8.147399499999999E-002 T T T
 0.269466616000000       0.533743008000000       8.636028300000000E-002 T T T
 0.399295736000000       0.403938751000000       8.642907000000000E-002 T T T
 0.600669966000000       0.403476692000000       8.924939200000000E-002 T T T
 0.665855769000000       0.537246110000000       9.030934400000000E-002 T T T
 0.801018752000000       0.403146376000000       8.532106700000000E-002 T T T
 0.867919519000000       0.536315799000000       8.548487600000000E-002 T T T
 2.033882000000000E-003  0.602343829000000       8.499828299999999E-002 T T T
 6.885967599999999E-002  0.735530152000000       8.507819000000000E-002 T T T
 0.204305919000000       0.601224953000000       8.704658300000000E-002 T T T
 0.269021463000000       0.735108781000000       8.906880100000000E-002 T T T
 0.470955685000000       0.736365011000000       9.293185000000000E-002 T T T
 0.601903538000000       0.605393821000000       9.310282400000000E-002 T T T
 0.669033942000000       0.736283833000000       8.604607100000000E-002 T T T
 0.800714932000000       0.603133135000000       8.656166200000000E-002 T T T
 0.868560993000000       0.735964528000000       8.392650800000000E-002 T T T
 2.220797000000000E-003  0.802269143000000       8.339388400000000E-002 T T T
 6.865767800000000E-002  0.935573898000000       8.184624100000000E-002 T T T
 0.202600202000000       0.801691119000000       8.656336400000000E-002 T T T
 0.268701006000000       0.935462789000000       8.525616599999999E-002 T T T
 0.402796207000000       0.800293776000000       9.006904600000000E-002 T T T
 0.468700441000000       0.935163606000000       8.635580200000000E-002 T T T
 0.601853547000000       0.803490805000000       8.596729400000000E-002 T T T
 0.668176865000000       0.936637404000000       8.210818400000000E-002 T T T
 0.802191339000000       0.802612034000000       8.223130200000001E-002 T T T
 0.868450167000000       0.936133627000000       7.996841100000000E-002 T T T
 0.435019019000000       0.569514019000000       0.121507457000000      T T T
 0.462281115000000       0.597256305000000       0.204758528000000      T T T
