 convert from PWmat
           1
   12.3000001900000       0.000000000000000E+000  0.000000000000000E+000
  -6.15000010000000        10.6521126300000       0.000000000000000E+000
  0.000000000000000E+000  0.000000000000000E+000   20.0000000000000     
 C  Ni O  H  
    48     1     1     1 
 DIRECT
 1.016148000000000E-003  1.824480000000000E-003  8.192542799999999E-002 T T T
 6.734843700000000E-002  0.134942779000000       8.174439999999999E-002 T T T
 0.201335881000000       1.373303000000000E-003  8.357249999999999E-002 T T T
 0.267753703000000       0.135079303000000       8.323490600000000E-002 T T T
 0.401363323000000       1.986492000000000E-003  8.588744700000001E-002 T T T
 0.467416248000000       0.135936971000000       8.508227600000000E-002 T T T
 0.601054160000000       2.705571000000000E-003  8.561170600000000E-002 T T T
 0.667421430000000       0.136227359000000       8.443953600000000E-002 T T T
 0.801212781000000       2.455756000000000E-003  8.248563600000000E-002 T T T
 0.867611135000000       0.135649097000000       8.213117100000000E-002 T T T
 7.409870000000000E-004  0.201860760000000       8.167516300000000E-002 T T T
 6.725345100000001E-002  0.335423178000000       8.161248900000000E-002 T T T
 0.200866457000000       0.201241796000000       8.210718300000000E-002 T T T
 0.267647774000000       0.334363290000000       8.170389400000000E-002 T T T
 0.400562541000000       0.202930032000000       8.454332500000000E-002 T T T
 0.466119683000000       0.337684933000000       8.633385700000000E-002 T T T
 0.600580810000000       0.202742710000000       8.529013400000000E-002 T T T
 0.666784328000000       0.336501672000000       8.645053900000001E-002 T T T
 0.800785027000000       0.202676334000000       8.311815600000000E-002 T T T
 0.867299918000000       0.336003692000000       8.332178799999999E-002 T T T
 1.043528000000000E-003  0.402360564000000       8.247213300000000E-002 T T T
 6.903125900000000E-002  0.535185451000000       8.348522500000000E-002 T T T
 0.200409375000000       0.402074723000000       8.124292299999999E-002 T T T
 0.270104288000000       0.533954506000000       8.430559500000000E-002 T T T
 0.399142794000000       0.403159228000000       8.564877500000000E-002 T T T
 0.600151900000000       0.402705951000000       8.852631800000001E-002 T T T
 0.665446338000000       0.536623890000000       8.971158000000000E-002 T T T
 0.800680310000000       0.402702034000000       8.517998300000000E-002 T T T
 0.867544194000000       0.535808058000000       8.505078800000000E-002 T T T
 1.638308000000000E-003  0.601788142000000       8.408003800000000E-002 T T T
 6.829811700000001E-002  0.734977626000000       8.430002900000000E-002 T T T
 0.204092825000000       0.600806547000000       8.516482400000000E-002 T T T
 0.268601815000000       0.734749147000000       8.833065900000001E-002 T T T
 0.470116443000000       0.736481035000000       9.579117500000001E-002 T T T
 0.601336300000000       0.604531198000000       9.264927800000000E-002 T T T
 0.668409405000000       0.735744041000000       8.743240300000001E-002 T T T
 0.800303660000000       0.602569364000000       8.637942400000000E-002 T T T
 0.867874492000000       0.735304633000000       8.431550800000000E-002 T T T
 1.587586000000000E-003  0.801649405000000       8.350247199999999E-002 T T T
 6.802521600000000E-002  0.934942486000000       8.277706100000000E-002 T T T
 0.202035495000000       0.801157107000000       8.599022100000001E-002 T T T
 0.268153586000000       0.934928109000000       8.544269000000000E-002 T T T
 0.402338289000000       0.800527788000000       9.110023100000000E-002 T T T
 0.468256733000000       0.935161615000000       8.761197900000001E-002 T T T
 0.601165470000000       0.803347566000000       8.847135400000000E-002 T T T
 0.667777256000000       0.936270178000000       8.461505800000001E-002 T T T
 0.801507667000000       0.802081989000000       8.368135800000000E-002 T T T
 0.867857720000000       0.935574789000000       8.223028600000000E-002 T T T
 0.435126228000000       0.570224701000000       0.117683543000000      T T T
 0.485156277000000       0.606064132000000       0.206550338000000      T T T
 0.542601030000000       0.575523763000000       0.216120646000000      T T T
