 convert from PWmat
           1
   12.3000001900000       0.000000000000000E+000  0.000000000000000E+000
  -6.15000010000000        10.6521126300000       0.000000000000000E+000
  0.000000000000000E+000  0.000000000000000E+000   20.0000000000000     
 C  Zn 
    48     1 
 DIRECT
 2.207287000000000E-003  1.691495000000000E-003  7.932325799999999E-002 T T T
 6.623679100000000E-002  0.133627574000000       7.922968100000000E-002 T T T
 0.202217046000000       2.194370000000000E-004  8.256564199999999E-002 T T T
 0.267424467000000       0.133595554000000       8.299419000000000E-002 T T T
 0.402213047000000       2.186540000000000E-003  8.546055399999999E-002 T T T
 0.467567861000000       0.136054404000000       8.500802800000000E-002 T T T
 0.602378685000000       4.637017000000000E-003  8.437828200000000E-002 T T T
 0.667567186000000       0.137985604000000       8.286498900000000E-002 T T T
 0.803494435000000       4.526412000000000E-003  8.037507800000000E-002 T T T
 0.867516808000000       0.136454076000000       7.927467600000000E-002 T T T
 -5.516830000000000E-004  0.200491439000000       7.916612200000001E-002 T T T
 6.328418399999999E-002  0.332635730000000       8.175201700000000E-002 T T T
 0.198371003000000       0.197459000000000       8.187791300000000E-002 T T T
 0.261984382000000       0.328719778000000       8.551093600000000E-002 T T T
 0.400159452000000       0.202146385000000       8.535762800000000E-002 T T T
 0.464847455000000       0.336906806000000       8.832514399999999E-002 T T T
 0.600597903000000       0.204097570000000       8.454562200000000E-002 T T T
 0.665899405000000       0.338128820000000       8.573864800000000E-002 T T T
 0.800566586000000       0.203420424000000       8.110838300000001E-002 T T T
 0.866009800000000       0.336442390000000       8.227594100000001E-002 T T T
 -5.995530000000000E-004  0.401665825000000       8.276100200000000E-002 T T T
 6.794934599999999E-002  0.534404357000000       8.519529500000000E-002 T T T
 0.194524809000000       0.396251481000000       8.549431500000000E-002 T T T
 0.261096871000000       0.526466753000000       8.976178500000000E-002 T T T
 0.392215229000000       0.395299392000000       8.967736100000000E-002 T T T
 0.599523226000000       0.404513180000000       8.867889100000000E-002 T T T
 0.667174516000000       0.539174189000000       8.977778200000000E-002 T T T
 0.799921092000000       0.403403533000000       8.441706000000000E-002 T T T
 0.867975737000000       0.536429860000000       8.496442100000000E-002 T T T
 1.844038000000000E-003  0.601786884000000       8.474558700000000E-002 T T T
 6.989662400000000E-002  0.734813567000000       8.451244800000000E-002 T T T
 0.202708859000000       0.599097440000000       8.841374800000000E-002 T T T
 0.270313177000000       0.733764806000000       8.901232300000000E-002 T T T
 0.477655937000000       0.743117710000000       9.316759900000000E-002 T T T
 0.608905623000000       0.611849108000000       9.285789500000000E-002 T T T
 0.675434968000000       0.742138492000000       8.891338800000000E-002 T T T
 0.801898930000000       0.603828930000000       8.634120900000000E-002 T T T
 0.870418528000000       0.736566075000000       8.407395099999999E-002 T T T
 3.780063000000000E-003  0.801764939000000       8.278990500000000E-002 T T T
 6.920154900000000E-002  0.934770325000000       8.122031600000000E-002 T T T
 0.203917709000000       0.800123224000000       8.605110500000000E-002 T T T
 0.269189095000000       0.934148606000000       8.486712800000000E-002 T T T
 0.404984137000000       0.801412883000000       9.023498600000000E-002 T T T
 0.469648621000000       0.936135757000000       8.684943200000000E-002 T T T
 0.607932757000000       0.809653924000000       8.905448700000000E-002 T T T
 0.671441236000000       0.940766647000000       8.404107600000001E-002 T T T
 0.806553391000000       0.805621392000000       8.388318700000000E-002 T T T
 0.870293200000000       0.937675697000000       8.034646900000000E-002 T T T
 0.434870995000000       0.569073791000000       9.519222099999999E-002 T T T
