 convert from PWmat
           1
   12.3000001900000       0.000000000000000E+000  0.000000000000000E+000
  -6.15000010000000        10.6521126300000       0.000000000000000E+000
  0.000000000000000E+000  0.000000000000000E+000   20.0000000000000     
 C  Zn O  
    48     1     1 
 DIRECT
 2.485013000000000E-003  2.450922000000000E-003  7.812438600000000E-002 T T T
 6.720524700000000E-002  0.134738150000000       7.759485900000000E-002 T T T
 0.202352881000000       1.179872000000000E-003  8.193751100000000E-002 T T T
 0.267969594000000       0.134518449000000       8.220498399999999E-002 T T T
 0.402407720000000       2.759063000000000E-003  8.511476300000000E-002 T T T
 0.467950494000000       0.136564992000000       8.521907600000000E-002 T T T
 0.602417040000000       4.772966000000000E-003  8.336738100000000E-002 T T T
 0.667987974000000       0.138044496000000       8.279909700000000E-002 T T T
 0.803325444000000       4.678945000000000E-003  7.889574500000000E-002 T T T
 0.867996427000000       0.136944634000000       7.817201300000000E-002 T T T
 2.762150000000000E-004  0.201667183000000       7.760225900000001E-002 T T T
 6.476212200000001E-002  0.334209658000000       8.023058900000000E-002 T T T
 0.199763587000000       0.199234403000000       8.021282200000000E-002 T T T
 0.263867336000000       0.331015974000000       8.489663700000000E-002 T T T
 0.400653128000000       0.202804499000000       8.556263900000000E-002 T T T
 0.465316827000000       0.337185961000000       8.989459200000000E-002 T T T
 0.600977685000000       0.204324746000000       8.522876000000000E-002 T T T
 0.666550151000000       0.338220797000000       8.659904200000000E-002 T T T
 0.800961557000000       0.203793879000000       8.050634500000001E-002 T T T
 0.866715452000000       0.336779344000000       8.199077100000000E-002 T T T
 4.963800000000000E-005  0.402412869000000       8.223377699999999E-002 T T T
 6.832242600000001E-002  0.535105174000000       8.556964600000000E-002 T T T
 0.196520019000000       0.398309717000000       8.492678400000001E-002 T T T
 0.262595083000000       0.528346016000000       9.245488300000000E-002 T T T
 0.393926486000000       0.397105461000000       9.238075799999999E-002 T T T
 0.599967795000000       0.404727909000000       8.984138200000000E-002 T T T
 0.667545150000000       0.539380242000000       8.952884300000000E-002 T T T
 0.800451652000000       0.403814157000000       8.472563599999999E-002 T T T
 0.868315402000000       0.536863454000000       8.515349899999999E-002 T T T
 2.097280000000000E-003  0.602412910000000       8.524128500000000E-002 T T T
 6.986868700000000E-002  0.735445173000000       8.517992500000000E-002 T T T
 0.202730892000000       0.599768804000000       8.990149000000000E-002 T T T
 0.270257830000000       0.734418084000000       8.978381600000000E-002 T T T
 0.476155905000000       0.742032819000000       9.118958900000000E-002 T T T
 0.607593332000000       0.610662551000000       9.125644700000000E-002 T T T
 0.673876801000000       0.741022696000000       8.553359700000000E-002 T T T
 0.802068037000000       0.604162797000000       8.592165900000000E-002 T T T
 0.870317998000000       0.736897314000000       8.333678200000000E-002 T T T
 3.594839000000000E-003  0.802469385000000       8.275092200000000E-002 T T T
 6.935543600000001E-002  0.935437408000000       8.042430700000000E-002 T T T
 0.203759474000000       0.801005245000000       8.653290499999999E-002 T T T
 0.269371546000000       0.934905562000000       8.470900500000000E-002 T T T
 0.404895253000000       0.802004257000000       8.944542799999999E-002 T T T
 0.469687795000000       0.936503550000000       8.587211800000000E-002 T T T
 0.606547527000000       0.808329006000000       8.553519499999999E-002 T T T
 0.670780464000000       0.940189594000000       8.183073300000000E-002 T T T
 0.805715462000000       0.805219534000000       8.174300100000000E-002 T T T
 0.870217579000000       0.937750744000000       7.884888499999999E-002 T T T
 0.435272458000000       0.569749269000000       0.114745705000000      T T T
 0.449953591000000       0.584269504000000       0.211158522000000      T T T
