 convert from PWmat
           1
   12.3000001900000       0.000000000000000E+000  0.000000000000000E+000
  -6.15000010000000        10.6521126300000       0.000000000000000E+000
  0.000000000000000E+000  0.000000000000000E+000   20.0000000000000     
 C  Zn O  H  
    48     1     1     1 
 DIRECT
 2.603329000000000E-003  2.180508000000000E-003  7.873243300000000E-002 T T T
 6.700765800000000E-002  0.134321550000000       7.904714800000000E-002 T T T
 0.202505058000000       7.844400000000000E-004  8.282265599999999E-002 T T T
 0.267871905000000       0.134095728000000       8.340015400000000E-002 T T T
 0.402594493000000       2.577641000000000E-003  8.555710200000000E-002 T T T
 0.467956816000000       0.136436905000000       8.542648600000000E-002 T T T
 0.602671344000000       4.910550000000000E-003  8.298273900000000E-002 T T T
 0.667969926000000       0.138178276000000       8.257823500000000E-002 T T T
 0.803634356000000       4.772910000000000E-003  7.859706900000001E-002 T T T
 0.867989287000000       0.136879012000000       7.879234000000000E-002 T T T
 1.062690000000000E-004  0.201271945000000       7.910034000000001E-002 T T T
 6.439777700000000E-002  0.333674655000000       8.236704900000000E-002 T T T
 0.199426569000000       0.198648648000000       8.206069800000000E-002 T T T
 0.263220800000000       0.330176541000000       8.682934600000000E-002 T T T
 0.400605470000000       0.202626855000000       8.608326199999999E-002 T T T
 0.465070874000000       0.337112332000000       8.972004800000000E-002 T T T
 0.600907507000000       0.204356220000000       8.496139400000000E-002 T T T
 0.666429470000000       0.338247546000000       8.621072200000000E-002 T T T
 0.800867266000000       0.203811652000000       8.098920300000000E-002 T T T
 0.866562903000000       0.336742265000000       8.284411799999999E-002 T T T
 -1.315030000000000E-004  0.402109706000000       8.386039500000000E-002 T T T
 6.843169800000000E-002  0.534844578000000       8.683537400000001E-002 T T T
 0.195916954000000       0.397434239000000       8.738421700000000E-002 T T T
 0.262472827000000       0.527423473000000       9.489817500000000E-002 T T T
 0.393480818000000       0.396873539000000       9.265927400000000E-002 T T T
 0.599821479000000       0.404817722000000       8.917583599999999E-002 T T T
 0.667522723000000       0.539606566000000       8.853191700000000E-002 T T T
 0.800328205000000       0.403804330000000       8.481021399999999E-002 T T T
 0.868370491000000       0.536832916000000       8.503557900000000E-002 T T T
 2.214177000000000E-003  0.602185876000000       8.555890800000000E-002 T T T
 7.013604900000001E-002  0.735119332000000       8.521933800000001E-002 T T T
 0.202889197000000       0.599251495000000       9.134404200000000E-002 T T T
 0.270623646000000       0.734076439000000       9.056721299999999E-002 T T T
 0.477015796000000       0.741986387000000       9.102919800000001E-002 T T T
 0.607503987000000       0.611065779000000       8.985393100000000E-002 T T T
 0.674432844000000       0.741424498000000       8.411372000000000E-002 T T T
 0.802111193000000       0.604157593000000       8.514545400000000E-002 T T T
 0.870668697000000       0.736895673000000       8.250958100000000E-002 T T T
 3.956738000000000E-003  0.802177041000000       8.249535099999999E-002 T T T
 6.957022000000000E-002  0.935093715000000       8.096273000000000E-002 T T T
 0.204022142000000       0.800609245000000       8.698848600000000E-002 T T T
 0.269574035000000       0.934545022000000       8.527955500000001E-002 T T T
 0.405495237000000       0.801875487000000       8.975853600000000E-002 T T T
 0.469981191000000       0.936380910000000       8.598175900000000E-002 T T T
 0.607192254000000       0.808777411000000       8.452927900000000E-002 T T T
 0.671199015000000       0.940446821000000       8.107154900000001E-002 T T T
 0.806128102000000       0.805376541000000       8.077813400000000E-002 T T T
 0.870507227000000       0.937846550000000       7.856138000000000E-002 T T T
 0.435927952000000       0.570025793000000       0.113857151000000      T T T
 0.455682463000000       0.576043057000000       0.213885444000000      T T T
 0.534543195000000       0.577675361000000       0.220331166000000      T T T
