 convert from PWmat
           1
   12.3000001900000       0.000000000000000E+000  0.000000000000000E+000
  -6.15000010000000        10.6521126300000       0.000000000000000E+000
  0.000000000000000E+000  0.000000000000000E+000   20.0000000000000     
 C  Zn O  H  
    48     1     2     1 
 DIRECT
 2.447855000000000E-003  1.889768000000000E-003  7.750494700000000E-002 T T T
 6.671259800000000E-002  0.133948151000000       7.921697100000000E-002 T T T
 0.202212206000000       4.492530000000000E-004  8.302285900000000E-002 T T T
 0.267448279000000       0.133634863000000       8.447345500000000E-002 T T T
 0.402316260000000       2.412833000000000E-003  8.555276900000000E-002 T T T
 0.467656058000000       0.136129176000000       8.590107700000001E-002 T T T
 0.602417530000000       4.804063000000000E-003  8.137841200000000E-002 T T T
 0.667707210000000       0.138093125000000       8.158648300000000E-002 T T T
 0.803307352000000       4.677168000000000E-003  7.609838500000000E-002 T T T
 0.867617217000000       0.136784685000000       7.749480600000000E-002 T T T
 -3.174580000000000E-004  0.201031189000000       7.923608300000000E-002 T T T
 6.364168700000000E-002  0.333053502000000       8.352008499999999E-002 T T T
 0.198745641000000       0.197882100000000       8.347424800000000E-002 T T T
 0.262644305000000       0.329436018000000       8.908931800000000E-002 T T T
 0.400228447000000       0.202177397000000       8.746905800000000E-002 T T T
 0.464870256000000       0.336717809000000       9.144267900000000E-002 T T T
 0.600660479000000       0.204215297000000       8.499088600000000E-002 T T T
 0.666216616000000       0.338191349000000       8.653758400000000E-002 T T T
 0.800652706000000       0.203752466000000       8.011606200000000E-002 T T T
 0.866268988000000       0.336587825000000       8.272764100000000E-002 T T T
 -5.323830000000000E-004  0.401806958000000       8.436558800000001E-002 T T T
 6.804427900000000E-002  0.534587451000000       8.753979600000000E-002 T T T
 0.195210760000000       0.396918043000000       8.920665300000000E-002 T T T
 0.261517683000000       0.526845780000000       9.549652400000000E-002 T T T
 0.392604488000000       0.395628339000000       9.494336000000000E-002 T T T
 0.599671160000000       0.404752145000000       8.978775800000000E-002 T T T
 0.667441182000000       0.539409807000000       8.775199300000000E-002 T T T
 0.800170979000000       0.403695371000000       8.484236500000000E-002 T T T
 0.868215373000000       0.536653067000000       8.498264400000000E-002 T T T
 1.921688000000000E-003  0.601953809000000       8.586624100000000E-002 T T T
 6.993100600000000E-002  0.734951842000000       8.526247200000001E-002 T T T
 0.202561798000000       0.599148057000000       9.200690800000000E-002 T T T
 0.270451166000000       0.733910467000000       9.076317900000000E-002 T T T
 0.477349411000000       0.742643504000000       8.969206600000000E-002 T T T
 0.608288015000000       0.611497152000000       8.830579500000001E-002 T T T
 0.674420725000000       0.741309196000000       8.229266800000000E-002 T T T
 0.801987772000000       0.603950831000000       8.427650900000000E-002 T T T
 0.870513718000000       0.736748020000000       8.099273000000000E-002 T T T
 3.809348000000000E-003  0.802009876000000       8.163427400000001E-002 T T T
 6.940577500000000E-002  0.934907809000000       8.023923299999999E-002 T T T
 0.203858068000000       0.800436184000000       8.723661500000000E-002 T T T
 0.269329632000000       0.934366396000000       8.546508999999999E-002 T T T
 0.405152259000000       0.801756402000000       8.912947500000000E-002 T T T
 0.469674497000000       0.936270731000000       8.514652300000000E-002 T T T
 0.607114880000000       0.808794616000000       8.278794900000000E-002 T T T
 0.671089814000000       0.940495923000000       7.870836500000000E-002 T T T
 0.806214277000000       0.805412699000000       7.855086300000000E-002 T T T
 0.870348146000000       0.937612769000000       7.610694699999999E-002 T T T
 0.436041846000000       0.570037179000000       0.108751261000000      T T T
 0.451815861000000       0.594031180000000       0.213874001000000      T T T
 0.549245725000000       0.571579059000000       0.236385910000000      T T T
 0.566737443000000       0.609750128000000       0.280701243000000      T T T
