 convert from PWmat
           1
   12.3000001900000       0.000000000000000E+000  0.000000000000000E+000
  -6.15000010000000        10.6521126300000       0.000000000000000E+000
  0.000000000000000E+000  0.000000000000000E+000   20.0000000000000     
 C  Mn O  H  
    48     1     1     1 
 DIRECT
 1.377929000000000E-003  2.101897000000000E-003  8.147330899999999E-002 T T T
 6.682601800000000E-002  0.134678111000000       8.078547599999999E-002 T T T
 0.201461967000000       1.353608000000000E-003  8.325881000000000E-002 T T T
 0.267522415000000       0.134795053000000       8.262857400000000E-002 T T T
 0.401571779000000       2.459745000000000E-003  8.472863100000000E-002 T T T
 0.467490474000000       0.136149926000000       8.432203500000000E-002 T T T
 0.601566401000000       3.869945000000000E-003  8.447037600000000E-002 T T T
 0.667514661000000       0.137170335000000       8.406940000000000E-002 T T T
 0.801995589000000       3.571073000000000E-003  8.202642200000000E-002 T T T
 0.867458894000000       0.136208434000000       8.176756900000000E-002 T T T
 8.070300000000000E-005  0.201624081000000       8.080025800000000E-002 T T T
 6.549929200000000E-002  0.334520570000000       8.097196800000001E-002 T T T
 0.199689010000000       0.199935547000000       8.132363099999999E-002 T T T
 0.265394506000000       0.332412211000000       8.224572400000001E-002 T T T
 0.400453009000000       0.202766715000000       8.389904300000001E-002 T T T
 0.465504490000000       0.337240801000000       8.636333600000000E-002 T T T
 0.600586055000000       0.203523423000000       8.478129600000001E-002 T T T
 0.666479022000000       0.337392298000000       8.575144400000000E-002 T T T
 0.800663790000000       0.203210072000000       8.303868500000000E-002 T T T
 0.866832838000000       0.336374053000000       8.295275700000000E-002 T T T
 2.772710000000000E-004  0.402428424000000       8.193312799999999E-002 T T T
 6.835358100000000E-002  0.535372636000000       8.289580200000000E-002 T T T
 0.197935233000000       0.400323039000000       8.203151200000000E-002 T T T
 0.266421071000000       0.531378162000000       8.683123900000000E-002 T T T
 0.395918007000000       0.399752267000000       8.744765900000000E-002 T T T
 0.599889136000000       0.403846485000000       8.803509399999999E-002 T T T
 0.666922304000000       0.538272932000000       8.875169199999999E-002 T T T
 0.800406252000000       0.403265143000000       8.439011800000000E-002 T T T
 0.867806387000000       0.536387335000000       8.392644400000000E-002 T T T
 1.556146000000000E-003  0.602262409000000       8.327533800000000E-002 T T T
 6.881949399999999E-002  0.735413740000000       8.384914200000000E-002 T T T
 0.202920150000000       0.600379056000000       8.544561900000000E-002 T T T
 0.269132031000000       0.734628374000000       8.754904099999999E-002 T T T
 0.472989290000000       0.739643888000000       9.400274500000000E-002 T T T
 0.605372148000000       0.608266242000000       9.265368100000000E-002 T T T
 0.671347695000000       0.738543793000000       8.665451600000000E-002 T T T
 0.801273619000000       0.603501728000000       8.500652900000000E-002 T T T
 0.869052861000000       0.736362844000000       8.361220000000000E-002 T T T
 2.422828000000000E-003  0.802250877000000       8.328746700000000E-002 T T T
 6.833672700000000E-002  0.935308850000000       8.271404600000000E-002 T T T
 0.202572209000000       0.801236276000000       8.525476400000000E-002 T T T
 0.268367868000000       0.935025332000000       8.470926900000000E-002 T T T
 0.403282873000000       0.801632658000000       8.924179800000000E-002 T T T
 0.468657563000000       0.935975977000000       8.580937299999999E-002 T T T
 0.603561283000000       0.806133729000000       8.711575600000000E-002 T T T
 0.669211763000000       0.938385795000000       8.366502900000000E-002 T T T
 0.803673636000000       0.804010095000000       8.308983700000000E-002 T T T
 0.868783999000000       0.936730649000000       8.175030400000000E-002 T T T
 0.434248500000000       0.569213536000000       0.123972800000000      T T T
 0.474954152000000       0.584087671000000       0.214726891000000      T T T
 0.547553208000000       0.577211432000000       0.226827851000000      T T T
