 convert from PWmat
           1
   12.3000001900000       0.000000000000000E+000  0.000000000000000E+000
  -6.15000010000000        10.6521126300000       0.000000000000000E+000
  0.000000000000000E+000  0.000000000000000E+000   20.0000000000000     
 C  Mn 
    48     1 
 DIRECT
 1.923710000000000E-003  1.975770000000000E-003  7.957784000000000E-002 T T T
 6.714885900000001E-002  0.134529748000000       7.902233000000000E-002 T T T
 0.201957751000000       1.231078000000000E-003  8.247532200000000E-002 T T T
 0.267917622000000       0.134633389000000       8.217315800000000E-002 T T T
 0.401966683000000       2.431245000000000E-003  8.483969700000001E-002 T T T
 0.467939247000000       0.135829439000000       8.410158900000000E-002 T T T
 0.601948167000000       3.694237000000000E-003  8.369334700000000E-002 T T T
 0.667884907000000       0.137093105000000       8.252865600000001E-002 T T T
 0.802528270000000       3.573375000000000E-003  7.988549000000000E-002 T T T
 0.867762376000000       0.136145800000000       7.953984400000000E-002 T T T
 2.968230000000000E-004  0.201396548000000       7.897067700000000E-002 T T T
 6.537341200000001E-002  0.334082642000000       8.037916600000000E-002 T T T
 0.199835827000000       0.199644202000000       8.045297300000000E-002 T T T
 0.265980413000000       0.332065242000000       8.326236200000001E-002 T T T
 0.400871142000000       0.201961447000000       8.423223800000000E-002 T T T
 0.466392760000000       0.336000386000000       8.744436400000000E-002 T T T
 0.601032768000000       0.203241113000000       8.392171300000000E-002 T T T
 0.667037291000000       0.337126612000000       8.535020600000000E-002 T T T
 0.800946573000000       0.203082448000000       8.127864800000000E-002 T T T
 0.866972239000000       0.336159254000000       8.227772500000000E-002 T T T
 3.685490000000000E-004  0.402164209000000       8.204732000000001E-002 T T T
 6.774563600000000E-002  0.535126950000000       8.419445800000000E-002 T T T
 0.197786287000000       0.400264671000000       8.328155299999999E-002 T T T
 0.262747963000000       0.530568212000000       8.945968900000000E-002 T T T
 0.396289378000000       0.396975960000000       8.931572500000000E-002 T T T
 0.600818248000000       0.403353730000000       8.845298800000000E-002 T T T
 0.668157541000000       0.537780428000000       8.991367500000000E-002 T T T
 0.800908258000000       0.403048496000000       8.427634700000000E-002 T T T
 0.868237786000000       0.536170899000000       8.454323599999999E-002 T T T
 1.646512000000000E-003  0.602192927000000       8.399023999999999E-002 T T T
 6.909055900000000E-002  0.735310968000000       8.390573400000000E-002 T T T
 0.201778115000000       0.600662794000000       8.758377400000000E-002 T T T
 0.269177912000000       0.735071782000000       8.872973300000001E-002 T T T
 0.473734589000000       0.741514057000000       9.448634300000000E-002 T T T
 0.607299482000000       0.607842771000000       9.427256900000000E-002 T T T
 0.672198206000000       0.738194557000000       8.790889200000000E-002 T T T
 0.802149099000000       0.603230994000000       8.593466399999999E-002 T T T
 0.869514063000000       0.736133307000000       8.343381900000001E-002 T T T
 2.914881000000000E-003  0.802120561000000       8.245190700000000E-002 T T T
 6.888081900000000E-002  0.935185027000000       8.135894700000000E-002 T T T
 0.202971247000000       0.801316933000000       8.560096500000000E-002 T T T
 0.268856704000000       0.935169101000000       8.459779800000000E-002 T T T
 0.403626494000000       0.802349238000000       9.022172900000000E-002 T T T
 0.469058481000000       0.936341897000000       8.629086699999999E-002 T T T
 0.604045844000000       0.806371564000000       8.801080000000000E-002 T T T
 0.669929719000000       0.938523396000000       8.281147899999999E-002 T T T
 0.804332739000000       0.804098615000000       8.264293800000000E-002 T T T
 0.869373328000000       0.936714667000000       7.984896599999999E-002 T T T
 0.433307532000000       0.567449428000000       0.119454605000000      T T T
