 convert from PWmat
           1
   12.3000001900000       0.000000000000000E+000  0.000000000000000E+000
  -6.15000010000000        10.6521126300000       0.000000000000000E+000
  0.000000000000000E+000  0.000000000000000E+000   20.0000000000000     
 C  Mn O  H  
    48     1     2     1 
 DIRECT
 1.384550000000000E-003  1.659786000000000E-003  8.150696800000000E-002 T T T
 6.638705600000000E-002  0.134096916000000       8.048494900000000E-002 T T T
 0.201454722000000       8.438400000000000E-004  8.338153900000000E-002 T T T
 0.267165238000000       0.134232576000000       8.224797200000000E-002 T T T
 0.401519342000000       2.253441000000000E-003  8.476698900000000E-002 T T T
 0.467102996000000       0.136005221000000       8.411500000000000E-002 T T T
 0.601469418000000       3.846901000000000E-003  8.422802400000000E-002 T T T
 0.667120877000000       0.137127413000000       8.389127600000000E-002 T T T
 0.801988408000000       3.532468000000000E-003  8.173204000000001E-002 T T T
 0.867028121000000       0.136030354000000       8.145704300000001E-002 T T T
 -5.227060000000000E-004  0.201024356000000       8.037386700000000E-002 T T T
 6.461669600000000E-002  0.333812148000000       8.040821300000001E-002 T T T
 0.199167073000000       0.199273831000000       8.070207200000000E-002 T T T
 0.264617776000000       0.331544143000000       8.130548899999999E-002 T T T
 0.400055645000000       0.202594828000000       8.335369600000000E-002 T T T
 0.464824479000000       0.337034427000000       8.551297099999999E-002 T T T
 0.600187558000000       0.203548263000000       8.453954399999999E-002 T T T
 0.665903333000000       0.337384134000000       8.553325400000000E-002 T T T
 0.800164784000000       0.203066518000000       8.287243599999999E-002 T T T
 0.866149165000000       0.336115153000000       8.298857499999999E-002 T T T
 -4.707930000000000E-004  0.401814224000000       8.177885000000000E-002 T T T
 6.790042700000000E-002  0.534714244000000       8.294015700000000E-002 T T T
 0.196861782000000       0.399311456000000       8.125659900000000E-002 T T T
 0.265267256000000       0.530147655000000       8.622569099999999E-002 T T T
 0.395375353000000       0.399783464000000       8.624117300000000E-002 T T T
 0.599310960000000       0.403961937000000       8.768208900000000E-002 T T T
 0.666767172000000       0.538388350000000       8.912909099999999E-002 T T T
 0.799788549000000       0.403087150000000       8.453354300000000E-002 T T T
 0.867525165000000       0.536186604000000       8.430539700000000E-002 T T T
 1.293201000000000E-003  0.601729198000000       8.366860000000000E-002 T T T
 6.881867899999999E-002  0.734836444000000       8.430018100000000E-002 T T T
 0.202347393000000       0.599506892000000       8.538600100000000E-002 T T T
 0.269159357000000       0.733973830000000       8.774055500000000E-002 T T T
 0.473437483000000       0.739880955000000       9.421021100000000E-002 T T T
 0.605129872000000       0.608296473000000       9.385433700000000E-002 T T T
 0.671681030000000       0.738678129000000       8.740548300000001E-002 T T T
 0.801029559000000       0.603305312000000       8.548486199999999E-002 T T T
 0.869115547000000       0.736150052000000       8.406496700000000E-002 T T T
 2.434708000000000E-003  0.801787707000000       8.371629999999999E-002 T T T
 6.840415699999999E-002  0.934819917000000       8.296323899999999E-002 T T T
 0.202621888000000       0.800597890000000       8.560559000000000E-002 T T T
 0.268388238000000       0.934485623000000       8.494448800000000E-002 T T T
 0.403556842000000       0.801515374000000       8.929901400000000E-002 T T T
 0.468632872000000       0.935807694000000       8.572890499999999E-002 T T T
 0.603903720000000       0.806419067000000       8.739587100000000E-002 T T T
 0.669243052000000       0.938464840000000       8.337441800000001E-002 T T T
 0.803809050000000       0.803948736000000       8.340954100000000E-002 T T T
 0.868898501000000       0.936636880000000       8.173341000000001E-002 T T T
 0.433511807000000       0.568147199000000       0.122905420000000      T T T
 0.462388206000000       0.604492763000000       0.215323260000000      T T T
 0.534218661000000       0.553344667000000       0.247387386000000      T T T
 0.604926397000000       0.630491380000000       0.264530256000000      T T T
