 convert from PWmat
           1
   12.3000001900000       0.000000000000000E+000  0.000000000000000E+000
  -6.15000010000000        10.6521126300000       0.000000000000000E+000
  0.000000000000000E+000  0.000000000000000E+000   20.0000000000000     
 C  Mn O  
    48     1     1 
 DIRECT
 2.585615000000000E-003  2.661182000000000E-003  7.927488400000000E-002 T T T
 6.752431800000000E-002  0.135133213000000       7.841321100000000E-002 T T T
 0.202825024000000       1.654401000000000E-003  8.253350700000001E-002 T T T
 0.268414049000000       0.135265771000000       8.239100900000000E-002 T T T
 0.402807425000000       2.774340000000000E-003  8.489406500000000E-002 T T T
 0.468301317000000       0.136939661000000       8.496156700000000E-002 T T T
 0.602590538000000       4.588569000000000E-003  8.344852600000000E-002 T T T
 0.668216290000000       0.138210353000000       8.335846299999999E-002 T T T
 0.803316922000000       4.580970000000000E-003  7.977980000000000E-002 T T T
 0.868236578000000       0.137049008000000       7.927808900000000E-002 T T T
 6.912880000000000E-004  0.201960879000000       7.841244700000000E-002 T T T
 6.584190199999999E-002  0.334740522000000       8.065397300000000E-002 T T T
 0.200318383000000       0.200331174000000       8.068064699999999E-002 T T T
 0.265345424000000       0.332351665000000       8.470904200000000E-002 T T T
 0.401199835000000       0.203895873000000       8.506082199999999E-002 T T T
 0.466134338000000       0.338873102000000       8.880560799999999E-002 T T T
 0.601373311000000       0.204616331000000       8.518114200000000E-002 T T T
 0.666899879000000       0.338581932000000       8.664500800000000E-002 T T T
 0.801280792000000       0.204150677000000       8.157203500000000E-002 T T T
 0.867203276000000       0.337290745000000       8.255083500000000E-002 T T T
 8.033120000000000E-004  0.402866463000000       8.236712600000000E-002 T T T
 6.945425000000000E-002  0.535660526000000       8.501078199999999E-002 T T T
 0.197857899000000       0.399770578000000       8.467510300000000E-002 T T T
 0.266493061000000       0.530194405000000       9.104818000000001E-002 T T T
 0.395760816000000       0.400960453000000       9.114838900000000E-002 T T T
 0.600263493000000       0.405063103000000       8.947430700000000E-002 T T T
 0.666329859000000       0.539181451000000       8.868902500000000E-002 T T T
 0.800829494000000       0.404182944000000       8.488817799999999E-002 T T T
 0.868317960000000       0.537262997000000       8.500620200000000E-002 T T T
 2.474444000000000E-003  0.602733922000000       8.498825000000000E-002 T T T
 7.017041800000000E-002  0.735807256000000       8.517255500000000E-002 T T T
 0.204440103000000       0.600587382000000       8.868749600000000E-002 T T T
 0.270624888000000       0.734720674000000       8.932909100000000E-002 T T T
 0.475005785000000       0.738671808000000       9.038821000000000E-002 T T T
 0.604195925000000       0.609467630000000       9.050545900000000E-002 T T T
 0.672970126000000       0.739973012000000       8.483027100000000E-002 T T T
 0.801316827000000       0.604244493000000       8.543456400000000E-002 T T T
 0.870132080000000       0.737028623000000       8.351111600000000E-002 T T T
 3.758705000000000E-003  0.802642430000000       8.338834300000000E-002 T T T
 6.968907500000000E-002  0.935708451000000       8.157939300000000E-002 T T T
 0.204134050000000       0.801352209000000       8.655794800000000E-002 T T T
 0.269722785000000       0.935281272000000       8.481439100000000E-002 T T T
 0.404741760000000       0.800813830000000       8.852765000000000E-002 T T T
 0.469809237000000       0.935794450000000       8.529986200000000E-002 T T T
 0.605520689000000       0.807414479000000       8.479626699999999E-002 T T T
 0.670604250000000       0.939493877000000       8.198905800000000E-002 T T T
 0.805042130000000       0.805041908000000       8.198669800000000E-002 T T T
 0.870119871000000       0.937744718000000       7.977363200000000E-002 T T T
 0.435601285000000       0.570129851000000       0.124032222000000      T T T
 0.436462649000000       0.571164577000000       0.203406350000000      T T T
