 convert from PWmat
           1
   12.3000001900000       0.000000000000000E+000  0.000000000000000E+000
  -6.15000010000000        10.6521126300000       0.000000000000000E+000
  0.000000000000000E+000  0.000000000000000E+000   20.0000000000000     
 C  Cu O  H  
    48     1     2     1 
 DIRECT
 1.594334000000000E-003  1.326629000000000E-003  8.070106600000000E-002 T T T
 6.582028800000000E-002  0.133372840000000       7.916095900000000E-002 T T T
 0.201677558000000       2.100200000000000E-005  8.295542500000000E-002 T T T
 0.266819377000000       0.133285021000000       8.229210300000001E-002 T T T
 0.401740399000000       1.862412000000000E-003  8.568149200000000E-002 T T T
 0.466789312000000       0.135806207000000       8.515469000000001E-002 T T T
 0.601747254000000       4.385159000000000E-003  8.493461300000001E-002 T T T
 0.666887264000000       0.137673591000000       8.406056000000001E-002 T T T
 0.802636508000000       4.162325000000000E-003  8.175358400000000E-002 T T T
 0.866819866000000       0.136178089000000       8.057341899999999E-002 T T T
 -1.147592000000000E-003  0.200394471000000       7.907231300000001E-002 T T T
 6.332233800000001E-002  0.332955718000000       8.020886100000001E-002 T T T
 0.198375033000000       0.197844283000000       8.035867500000000E-002 T T T
 0.262463761000000       0.329487310000000       8.307138500000000E-002 T T T
 0.399506636000000       0.202316623000000       8.480100500000000E-002 T T T
 0.463511921000000       0.337012614000000       8.793089100000000E-002 T T T
 0.599716923000000       0.203917626000000       8.538688600000000E-002 T T T
 0.665181559000000       0.337909665000000       8.654129400000000E-002 T T T
 0.799805378000000       0.203292429000000       8.225239700000000E-002 T T T
 0.865472367000000       0.336245782000000       8.258468900000000E-002 T T T
 -1.250416000000000E-003  0.401391424000000       8.198430700000001E-002 T T T
 6.778354900000000E-002  0.534085066000000       8.459319899999999E-002 T T T
 0.194950690000000       0.397008172000000       8.311055800000000E-002 T T T
 0.264192252000000       0.527476251000000       8.933089600000001E-002 T T T
 0.392966377000000       0.398784769000000       8.891483000000000E-002 T T T
 0.598442722000000       0.404472774000000       8.908269700000000E-002 T T T
 0.666294974000000       0.539309264000000       8.973823600000000E-002 T T T
 0.799219214000000       0.403356213000000       8.489700000000000E-002 T T T
 0.867296525000000       0.536290672000000       8.518891600000000E-002 T T T
 1.247764000000000E-003  0.601341127000000       8.477026100000000E-002 T T T
 6.934503200000000E-002  0.734251992000000       8.517132099999999E-002 T T T
 0.202446931000000       0.598069616000000       8.819449800000000E-002 T T T
 0.269869033000000       0.733023333000000       8.957298100000000E-002 T T T
 0.475699594000000       0.739940220000000       9.291992800000000E-002 T T T
 0.605324177000000       0.610271035000000       9.204894199999999E-002 T T T
 0.673675721000000       0.740696742000000       8.791497500000001E-002 T T T
 0.800908204000000       0.603595764000000       8.666179300000000E-002 T T T
 0.869814868000000       0.736285038000000       8.477512700000001E-002 T T T
 3.109876000000000E-003  0.801421380000000       8.388240000000000E-002 T T T
 6.872276099999999E-002  0.934339894000000       8.238605000000000E-002 T T T
 0.203322070000000       0.799745312000000       8.676433100000000E-002 T T T
 0.268796248000000       0.933793836000000       8.535468200000000E-002 T T T
 0.404754786000000       0.800918227000000       9.043106200000001E-002 T T T
 0.469064782000000       0.935514025000000       8.705541999999999E-002 T T T
 0.606134491000000       0.808278265000000       8.815349900000000E-002 T T T
 0.670190656000000       0.939807016000000       8.421583500000000E-002 T T T
 0.805260838000000       0.804748409000000       8.434399900000000E-002 T T T
 0.869601290000000       0.937175118000000       8.185552900000000E-002 T T T
 0.434491062000000       0.568911133000000       0.102724798000000      T T T
 0.468060587000000       0.608750900000000       0.210350706000000      T T T
 0.536145872000000       0.558317105000000       0.240754425000000      T T T
 0.598437608000000       0.628918938000000       0.267307293000000      T T T
