 convert from PWmat
           1
   12.3000001900000       0.000000000000000E+000  0.000000000000000E+000
  -6.15000010000000        10.6521126300000       0.000000000000000E+000
  0.000000000000000E+000  0.000000000000000E+000   20.0000000000000     
 C  Cu O  
    48     1     1 
 DIRECT
 9.421710000000000E-004  1.859307000000000E-003  7.924600599999999E-002 T T T
 6.734613600000000E-002  0.135033686000000       7.822817000000000E-002 T T T
 0.201090573000000       1.410098000000000E-003  8.309088800000000E-002 T T T
 0.267623420000000       0.135032771000000       8.190771800000000E-002 T T T
 0.401077701000000       2.197306000000000E-003  8.639915300000001E-002 T T T
 0.467422918000000       0.135957183000000       8.543624800000001E-002 T T T
 0.600858038000000       2.634930000000000E-003  8.419859100000000E-002 T T T
 0.667329594000000       0.136134653000000       8.363574700000000E-002 T T T
 0.800850437000000       2.107008000000000E-003  7.898894800000000E-002 T T T
 0.867389912000000       0.135423831000000       7.918225900000000E-002 T T T
 5.626690000000000E-004  0.201811806000000       7.820182000000001E-002 T T T
 6.665845600000000E-002  0.335213372000000       7.917221100000001E-002 T T T
 0.200758661000000       0.201128775000000       7.921841900000000E-002 T T T
 0.267534731000000       0.334524180000000       8.007469900000000E-002 T T T
 0.400488595000000       0.202755532000000       8.457218800000001E-002 T T T
 0.466407641000000       0.337450529000000       8.738105600000000E-002 T T T
 0.600594292000000       0.202614336000000       8.565657800000000E-002 T T T
 0.666831464000000       0.336215933000000       8.747949400000000E-002 T T T
 0.800615234000000       0.202328338000000       8.173700600000000E-002 T T T
 0.866961208000000       0.335579749000000       8.312146099999999E-002 T T T
 5.737080000000000E-004  0.402094460000000       8.186024700000000E-002 T T T
 6.829377600000000E-002  0.534967994000000       8.444618399999999E-002 T T T
 0.200067142000000       0.401979232000000       8.000760100000000E-002 T T T
 0.266942994000000       0.532968922000000       8.578729200000000E-002 T T T
 0.398500517000000       0.401371833000000       8.597215200000000E-002 T T T
 0.600370596000000       0.402452618000000       9.000992100000001E-002 T T T
 0.666474000000000       0.536178974000000       9.179097100000000E-002 T T T
 0.800615425000000       0.402373059000000       8.628352800000000E-002 T T T
 0.867727891000000       0.535570174000000       8.651587199999999E-002 T T T
 1.473791000000000E-003  0.601881685000000       8.540041600000001E-002 T T T
 6.811160199999999E-002  0.735039042000000       8.556064900000000E-002 T T T
 0.203001873000000       0.600883050000000       8.714309300000000E-002 T T T
 0.267960749000000       0.734826476000000       8.978566600000000E-002 T T T
 0.470724806000000       0.739137066000000       9.447927000000000E-002 T T T
 0.604647788000000       0.605263428000000       9.450402300000001E-002 T T T
 0.668619820000000       0.735576237000000       8.720081400000000E-002 T T T
 0.801087074000000       0.602615639000000       8.782935900000000E-002 T T T
 0.868141883000000       0.735332144000000       8.427266600000000E-002 T T T
 1.628875000000000E-003  0.801785379000000       8.364620800000000E-002 T T T
 6.782516099999999E-002  0.935068605000000       8.175794700000000E-002 T T T
 0.201724238000000       0.801282545000000       8.729199700000000E-002 T T T
 0.267885010000000       0.935068262000000       8.614592700000000E-002 T T T
 0.401686751000000       0.800975938000000       9.161107200000000E-002 T T T
 0.468137501000000       0.935583765000000       8.768273700000000E-002 T T T
 0.601062595000000       0.803129528000000       8.718952400000000E-002 T T T
 0.667589547000000       0.936282717000000       8.188007300000000E-002 T T T
 0.801801405000000       0.802078941000000       8.192797500000000E-002 T T T
 0.867635164000000       0.935336165000000       7.902202000000000E-002 T T T
 0.434085887000000       0.568726461000000       0.118630185000000      T T T
 0.490012306000000       0.623366477000000       0.201346750000000      T T T
