 convert from PWmat
           1
   12.3000001900000       0.000000000000000E+000  0.000000000000000E+000
  -6.15000010000000        10.6521126300000       0.000000000000000E+000
  0.000000000000000E+000  0.000000000000000E+000   20.0000000000000     
 C  Cu O  H  
    48     1     1     1 
 DIRECT
 1.434556000000000E-003  1.949242000000000E-003  8.152705600000000E-002 T T T
 6.716129000000000E-002  0.134815296000000       8.022985500000000E-002 T T T
 0.201592455000000       1.263450000000000E-003  8.328151400000000E-002 T T T
 0.267629176000000       0.134746512000000       8.283202800000000E-002 T T T
 0.401395651000000       2.184215000000000E-003  8.598507300000000E-002 T T T
 0.467433280000000       0.135977945000000       8.540679299999999E-002 T T T
 0.601347639000000       3.162105000000000E-003  8.566295200000000E-002 T T T
 0.667429093000000       0.136646246000000       8.466924900000000E-002 T T T
 0.801746591000000       2.996378000000000E-003  8.258647700000001E-002 T T T
 0.867530204000000       0.135889783000000       8.172179300000000E-002 T T T
 3.925620000000000E-004  0.201626656000000       8.010229800000000E-002 T T T
 6.608395100000000E-002  0.334756668000000       8.031018500000001E-002 T T T
 0.200294773000000       0.200462294000000       8.078769900000000E-002 T T T
 0.266401186000000       0.333316872000000       8.233443600000000E-002 T T T
 0.400453452000000       0.202636856000000       8.509199100000001E-002 T T T
 0.465988563000000       0.337233392000000       8.789602600000000E-002 T T T
 0.600555931000000       0.203034262000000       8.559935600000000E-002 T T T
 0.666685889000000       0.336731115000000       8.651118600000000E-002 T T T
 0.800599018000000       0.202808513000000       8.296468799999999E-002 T T T
 0.866850382000000       0.336005452000000       8.297579400000001E-002 T T T
 3.677810000000000E-004  0.402081563000000       8.212880800000000E-002 T T T
 6.835509200000001E-002  0.534918902000000       8.425679899999999E-002 T T T
 0.198973200000000       0.400799979000000       8.219337800000000E-002 T T T
 0.266080921000000       0.531634053000000       8.881962500000000E-002 T T T
 0.397248484000000       0.400335087000000       8.869763400000000E-002 T T T
 0.600198816000000       0.403026367000000       8.871492200000000E-002 T T T
 0.666733043000000       0.537097930000000       8.900028800000000E-002 T T T
 0.800473229000000       0.402782622000000       8.500852700000000E-002 T T T
 0.867848665000000       0.535840236000000       8.498304800000001E-002 T T T
 1.659764000000000E-003  0.601884242000000       8.438920799999999E-002 T T T
 6.865856600000000E-002  0.734980176000000       8.471722499999999E-002 T T T
 0.202962382000000       0.600430652000000       8.751912900000000E-002 T T T
 0.268666736000000       0.734628716000000       8.889205600000000E-002 T T T
 0.471905370000000       0.739194342000000       9.265948600000000E-002 T T T
 0.604728384000000       0.606260002000000       9.053105900000000E-002 T T T
 0.670024193000000       0.736952574000000       8.647654000000000E-002 T T T
 0.801304962000000       0.602916765000000       8.615348800000000E-002 T T T
 0.868750367000000       0.735760220000000       8.434791799999999E-002 T T T
 2.248376000000000E-003  0.801853176000000       8.371460100000000E-002 T T T
 6.838911000000000E-002  0.935037701000000       8.264207400000000E-002 T T T
 0.202361255000000       0.801092295000000       8.630574800000000E-002 T T T
 0.268376833000000       0.934882471000000       8.542108800000001E-002 T T T
 0.402746824000000       0.801173621000000       9.017424000000000E-002 T T T
 0.468493707000000       0.935669676000000       8.740238800000000E-002 T T T
 0.602440693000000       0.804454389000000       8.719789400000000E-002 T T T
 0.668674018000000       0.937415206000000       8.452561000000000E-002 T T T
 0.802975272000000       0.803105549000000       8.364905500000000E-002 T T T
 0.868551059000000       0.936184699000000       8.229059000000000E-002 T T T
 0.434371645000000       0.569148786000000       0.114467393000000      T T T
 0.482860384000000       0.604093676000000       0.208913821000000      T T T
 0.541553356000000       0.574710344000000       0.217445340000000      T T T
