 convert from PWmat
           1
   12.3000001900000       0.000000000000000E+000  0.000000000000000E+000
  -6.15000010000000        10.6521126300000       0.000000000000000E+000
  0.000000000000000E+000  0.000000000000000E+000   20.0000000000000     
 C  Cu 
    48     1 
 DIRECT
 2.339742000000000E-003  1.543220000000000E-003  7.936752699999999E-002 T T T
 6.622673699999999E-002  0.133402481000000       7.928834400000000E-002 T T T
 0.202326915000000       1.270200000000000E-005  8.257666100000000E-002 T T T
 0.267272316000000       0.133240904000000       8.297722900000000E-002 T T T
 0.402412386000000       2.116297000000000E-003  8.548317900000001E-002 T T T
 0.467373537000000       0.136133034000000       8.503001100000000E-002 T T T
 0.602521840000000       4.983839000000000E-003  8.432672500000001E-002 T T T
 0.667454755000000       0.138184453000000       8.287565400000001E-002 T T T
 0.803482411000000       4.732152000000000E-003  8.029919300000000E-002 T T T
 0.867370418000000       0.136590387000000       7.932069400000000E-002 T T T
 -7.734460000000000E-004  0.200485503000000       7.922309399999999E-002 T T T
 6.320034700000000E-002  0.332697249000000       8.174260000000000E-002 T T T
 0.198428258000000       0.197375894000000       8.187665199999999E-002 T T T
 0.261973655000000       0.328539976000000       8.551363800000000E-002 T T T
 0.399931010000000       0.202524181000000       8.537650400000001E-002 T T T
 0.463620532000000       0.337210554000000       8.833960500000000E-002 T T T
 0.600297589000000       0.204524373000000       8.454403800000000E-002 T T T
 0.665485331000000       0.338555572000000       8.566679600000000E-002 T T T
 0.800299021000000       0.203693120000000       8.112950600000000E-002 T T T
 0.865803026000000       0.336567292000000       8.228907300000000E-002 T T T
 -9.540680000000000E-004  0.401519721000000       8.273495900000000E-002 T T T
 6.832911799999999E-002  0.534178669000000       8.520930600000000E-002 T T T
 0.194347314000000       0.396242898000000       8.549295500000000E-002 T T T
 0.264265864000000       0.526650717000000       8.979502200000000E-002 T T T
 0.392393470000000       0.398459220000000       8.971070300000000E-002 T T T
 0.598768693000000       0.405264718000000       8.865367700000000E-002 T T T
 0.666872633000000       0.540390775000000       8.989684100000001E-002 T T T
 0.799501236000000       0.403723045000000       8.440465100000000E-002 T T T
 0.867904172000000       0.536635004000000       8.497497900000001E-002 T T T
 1.916466000000000E-003  0.601585996000000       8.476013500000000E-002 T T T
 7.032310800000000E-002  0.734500393000000       8.452143300000001E-002 T T T
 0.203015316000000       0.597874680000000       8.843021600000001E-002 T T T
 0.271073849000000       0.733012011000000       8.899504499999999E-002 T T T
 0.477499581000000       0.739996510000000       9.343796000000000E-002 T T T
 0.605765781000000       0.611680692000000       9.315362500000000E-002 T T T
 0.675614825000000       0.742144592000000       8.893713100000000E-002 T T T
 0.801516731000000       0.604049648000000       8.636974600000000E-002 T T T
 0.870766198000000       0.736704539000000       8.399685400000000E-002 T T T
 3.984875000000000E-003  0.801638404000000       8.280246900000000E-002 T T T
 6.946292499999999E-002  0.934494814000000       8.124069000000000E-002 T T T
 0.204340539000000       0.799700676000000       8.598814200000000E-002 T T T
 0.269493805000000       0.933727216000000       8.485691800000000E-002 T T T
 0.406211477000000       0.801120659000000       9.037129900000000E-002 T T T
 0.469876281000000       0.935764371000000       8.690025500000000E-002 T T T
 0.607943009000000       0.809832099000000       8.908429900000001E-002 T T T
 0.671362623000000       0.940829722000000       8.389229900000000E-002 T T T
 0.806619659000000       0.805538354000000       8.370700500000000E-002 T T T
 0.870497451000000       0.937663100000000       8.026275700000000E-002 T T T
 0.434903496000000       0.569108792000000       9.460101100000000E-002 T T T
