 convert from PWmat
           1
   12.3000001900000       0.000000000000000E+000  0.000000000000000E+000
  -6.15000010000000        10.6521126300000       0.000000000000000E+000
  0.000000000000000E+000  0.000000000000000E+000   20.0000000000000     
 C  Fe 
    48     1 
 DIRECT
 2.090624000000000E-003  1.790038000000000E-003  7.816707300000000E-002 T T T
 6.675742599999999E-002  0.134127983000000       7.782018700000000E-002 T T T
 0.202130065000000       6.994810000000000E-004  8.181781500000000E-002 T T T
 0.267630256000000       0.134102297000000       8.190563600000000E-002 T T T
 0.402086054000000       2.284261000000000E-003  8.494508300000000E-002 T T T
 0.467731408000000       0.136008778000000       8.437162400000001E-002 T T T
 0.602205047000000       4.182634000000000E-003  8.373266800000000E-002 T T T
 0.667648747000000       0.137544062000000       8.225358500000000E-002 T T T
 0.802895010000000       3.936825000000000E-003  7.894672899999999E-002 T T T
 0.867567654000000       0.136300150000000       7.815105400000000E-002 T T T
 -8.732800000000000E-005  0.200984714000000       7.781284300000001E-002 T T T
 6.456326799999999E-002  0.333451647000000       8.014192800000000E-002 T T T
 0.199231786000000       0.198782543000000       8.014139100000001E-002 T T T
 0.264234356000000       0.330665189000000       8.374967699999999E-002 T T T
 0.400544890000000       0.202279541000000       8.452064099999999E-002 T T T
 0.465435440000000       0.336648743000000       8.815566900000001E-002 T T T
 0.600777843000000       0.203813810000000       8.416814300000000E-002 T T T
 0.666370975000000       0.337761629000000       8.577290200000000E-002 T T T
 0.800694418000000       0.203267799000000       8.028936400000000E-002 T T T
 0.866470167000000       0.336330124000000       8.169433700000001E-002 T T T
 -1.181570000000000E-004  0.401846608000000       8.186027200000000E-002 T T T
 6.806340499999999E-002  0.534771386000000       8.450429199999999E-002 T T T
 0.196441179000000       0.398433956000000       8.376778400000000E-002 T T T
 0.263330424000000       0.528874384000000       9.033306700000000E-002 T T T
 0.394690561000000       0.397572847000000       9.028093900000000E-002 T T T
 0.600020814000000       0.404168175000000       8.926200900000000E-002 T T T
 0.667561503000000       0.538720991000000       9.087942300000000E-002 T T T
 0.800305234000000       0.403255395000000       8.428754400000001E-002 T T T
 0.868075928000000       0.536310308000000       8.475219700000000E-002 T T T
 1.795891000000000E-003  0.601954749000000       8.427980300000000E-002 T T T
 6.959691400000000E-002  0.735007664000000       8.412198799999999E-002 T T T
 0.202428454000000       0.599638089000000       8.822509300000000E-002 T T T
 0.269938661000000       0.734215539000000       8.941192400000000E-002 T T T
 0.475365473000000       0.741150134000000       9.611331400000001E-002 T T T
 0.606940220000000       0.609583619000000       9.596410700000001E-002 T T T
 0.673603564000000       0.740060904000000       8.890686500000000E-002 T T T
 0.801845609000000       0.603514859000000       8.642157100000000E-002 T T T
 0.869971511000000       0.736401625000000       8.359052700000000E-002 T T T
 3.340342000000000E-003  0.801887552000000       8.218953100000000E-002 T T T
 6.907489500000000E-002  0.934941320000000       8.032846800000000E-002 T T T
 0.203543640000000       0.800579698000000       8.590427100000000E-002 T T T
 0.269034316000000       0.934515123000000       8.448780100000000E-002 T T T
 0.404508973000000       0.801781743000000       9.107991400000000E-002 T T T
 0.469313998000000       0.936064335000000       8.661827400000000E-002 T T T
 0.605845050000000       0.807828282000000       8.899663500000000E-002 T T T
 0.670539738000000       0.939365283000000       8.284152200000000E-002 T T T
 0.805137464000000       0.804712686000000       8.269070100000001E-002 T T T
 0.869723951000000       0.937083615000000       7.892605900000001E-002 T T T
 0.433765150000000       0.567942104000000       0.114844859000000      T T T
