 convert from PWmat
           1
   12.3000001900000       0.000000000000000E+000  0.000000000000000E+000
  -6.15000010000000        10.6521126300000       0.000000000000000E+000
  0.000000000000000E+000  0.000000000000000E+000   20.0000000000000     
 C  Fe O  
    48     1     1 
 DIRECT
 2.541655000000000E-003  2.663664000000000E-003  7.938665600000000E-002 T T T
 6.748522300000000E-002  0.135129755000000       7.853448100000000E-002 T T T
 0.202894518000000       1.604724000000000E-003  8.254447299999999E-002 T T T
 0.268424592000000       0.135282245000000       8.247872600000000E-002 T T T
 0.402831589000000       2.635689000000000E-003  8.509311000000000E-002 T T T
 0.468150929000000       0.137062801000000       8.508136400000001E-002 T T T
 0.602540826000000       4.612773000000000E-003  8.363658500000000E-002 T T T
 0.668078200000000       0.138266551000000       8.335326500000000E-002 T T T
 0.803349794000000       4.587655000000000E-003  8.002458100000000E-002 T T T
 0.868244207000000       0.137013202000000       7.937506699999999E-002 T T T
 6.874680000000000E-004  0.201930131000000       7.852867400000001E-002 T T T
 6.586066600000000E-002  0.334724671000000       8.079449900000001E-002 T T T
 0.200283394000000       0.200344194000000       8.082064600000000E-002 T T T
 0.265122720000000       0.332267016000000       8.462545100000000E-002 T T T
 0.401111006000000       0.204310550000000       8.520088100000001E-002 T T T
 0.465852558000000       0.339696759000000       8.879363699999999E-002 T T T
 0.601173869000000       0.204706709000000       8.518676999999999E-002 T T T
 0.666681741000000       0.338699272000000       8.673581700000001E-002 T T T
 0.801205927000000       0.204175029000000       8.157761099999999E-002 T T T
 0.867134444000000       0.337353802000000       8.255756900000000E-002 T T T
 7.966970000000000E-004  0.402872369000000       8.245420400000000E-002 T T T
 6.985242300000000E-002  0.535561593000000       8.515406000000000E-002 T T T
 0.197780290000000       0.399565801000000       8.459744800000001E-002 T T T
 0.267987330000000       0.529972378000000       9.102801000000001E-002 T T T
 0.395527123000000       0.402468877000000       9.110027300000000E-002 T T T
 0.599926370000000       0.405321883000000       8.945368400000001E-002 T T T
 0.665511054000000       0.539396879000000       8.876003800000000E-002 T T T
 0.800701613000000       0.404258991000000       8.500860500000000E-002 T T T
 0.868177907000000       0.537278914000000       8.519797699999999E-002 T T T
 2.593196000000000E-003  0.602585564000000       8.510373900000000E-002 T T T
 7.026088599999999E-002  0.735608211000000       8.518260699999999E-002 T T T
 0.205243304000000       0.600319433000000       8.869482800000000E-002 T T T
 0.270883884000000       0.734390037000000       8.931466000000000E-002 T T T
 0.475282404000000       0.737253485000000       9.067030700000001E-002 T T T
 0.602797893000000       0.609741837000000       9.079357100000000E-002 T T T
 0.673121474000000       0.740232263000000       8.497929999999999E-002 T T T
 0.800920020000000       0.604260242000000       8.565373200000000E-002 T T T
 0.870153678000000       0.736969432000000       8.370651699999999E-002 T T T
 3.818211000000000E-003  0.802501081000000       8.339365999999999E-002 T T T
 6.971642800000000E-002  0.935643196000000       8.159409099999999E-002 T T T
 0.204253895000000       0.801145768000000       8.665247800000000E-002 T T T
 0.269807028000000       0.935168779000000       8.494261200000000E-002 T T T
 0.404958765000000       0.799977398000000       8.859354000000000E-002 T T T
 0.469840378000000       0.935395496000000       8.550858400000000E-002 T T T
 0.605786613000000       0.807556345000000       8.494680100000000E-002 T T T
 0.670631608000000       0.939503377000000       8.225574200000001E-002 T T T
 0.805057306000000       0.805057224000000       8.223537000000000E-002 T T T
 0.870120624000000       0.937761243000000       8.001623800000000E-002 T T T
 0.435641253000000       0.570176706000000       0.122311288000000      T T T
 0.436948747000000       0.571598143000000       0.200276970000000      T T T
