 convert from PWmat
           1
   12.3000001900000       0.000000000000000E+000  0.000000000000000E+000
  -6.15000010000000        10.6521126300000       0.000000000000000E+000
  0.000000000000000E+000  0.000000000000000E+000   20.0000000000000     
 C  Fe O  H  
    48     1     1     1 
 DIRECT
 2.390471000000000E-003  2.647221000000000E-003  7.925813100000000E-002 T T T
 6.817956400000000E-002  0.135594733000000       7.987564400000000E-002 T T T
 0.202488207000000       1.965684000000000E-003  8.294917900000000E-002 T T T
 0.268647771000000       0.135601206000000       8.319600300000000E-002 T T T
 0.402359278000000       2.677714000000000E-003  8.520886900000001E-002 T T T
 0.468497562000000       0.136476061000000       8.447151200000000E-002 T T T
 0.602279535000000       3.676616000000000E-003  8.261642000000000E-002 T T T
 0.668329939000000       0.137193852000000       8.214953600000000E-002 T T T
 0.802588174000000       3.583342000000000E-003  7.879868600000001E-002 T T T
 0.868375325000000       0.136552439000000       7.955431100000000E-002 T T T
 1.356284000000000E-003  0.202386597000000       8.002836800000000E-002 T T T
 6.707157000000000E-002  0.335423539000000       8.264651900000000E-002 T T T
 0.201231503000000       0.201332541000000       8.202210500000000E-002 T T T
 0.267661109000000       0.334326654000000       8.500833800000000E-002 T T T
 0.401620149000000       0.203293030000000       8.494257400000001E-002 T T T
 0.467346151000000       0.337928550000000       8.766808800000001E-002 T T T
 0.601589249000000       0.203530929000000       8.402118700000000E-002 T T T
 0.667614312000000       0.337352134000000       8.528540000000000E-002 T T T
 0.801535989000000       0.203403696000000       8.126512200000000E-002 T T T
 0.867781949000000       0.336623569000000       8.304133800000001E-002 T T T
 1.348643000000000E-003  0.402841619000000       8.404976200000000E-002 T T T
 6.907095600000000E-002  0.535756609000000       8.644944000000000E-002 T T T
 0.199978357000000       0.401855123000000       8.583595600000000E-002 T T T
 0.266546739000000       0.532548102000000       9.236933100000000E-002 T T T
 0.398597330000000       0.400887100000000       8.988948200000001E-002 T T T
 0.601339264000000       0.403735452000000       8.775101400000000E-002 T T T
 0.667423783000000       0.537716436000000       8.747848100000000E-002 T T T
 0.801451097000000       0.403412275000000       8.449660900000000E-002 T T T
 0.868579246000000       0.536576343000000       8.454782100000000E-002 T T T
 2.367179000000000E-003  0.602688221000000       8.504938700000000E-002 T T T
 6.943147199999999E-002  0.735830036000000       8.457012300000000E-002 T T T
 0.203625474000000       0.601385828000000       9.010094700000000E-002 T T T
 0.269522242000000       0.735422353000000       9.005471700000001E-002 T T T
 0.472735449000000       0.739144971000000       9.128002400000000E-002 T T T
 0.604997375000000       0.606730655000000       8.940716400000000E-002 T T T
 0.670864407000000       0.737356975000000       8.327339800000000E-002 T T T
 0.802004614000000       0.603645622000000       8.430640500000000E-002 T T T
 0.869610553000000       0.736479737000000       8.160014500000000E-002 T T T
 3.144450000000000E-003  0.802592182000000       8.187485200000000E-002 T T T
 6.929035300000000E-002  0.935810841000000       8.104748400000000E-002 T T T
 0.203236936000000       0.801836754000000       8.670877800000000E-002 T T T
 0.269221419000000       0.935604325000000       8.521608899999999E-002 T T T
 0.403552745000000       0.801464930000000       8.959690600000000E-002 T T T
 0.469401485000000       0.936059709000000       8.575171800000000E-002 T T T
 0.603161128000000       0.805013091000000       8.399380700000000E-002 T T T
 0.669609338000000       0.937947640000000       8.069666400000000E-002 T T T
 0.803867780000000       0.803838223000000       7.989708700000001E-002 T T T
 0.869422371000000       0.936857852000000       7.854793500000000E-002 T T T
 0.436832575000000       0.570106216000000       0.124037087000000      T T T
 0.458293148000000       0.582993861000000       0.216004892000000      T T T
 0.520516128000000       0.562880084000000       0.232224598000000      T T T
