 convert from PWmat
           1
   12.3000001900000       0.000000000000000E+000  0.000000000000000E+000
  -6.15000010000000        10.6521126300000       0.000000000000000E+000
  0.000000000000000E+000  0.000000000000000E+000   20.0000000000000     
 C  Fe O  H  
    48     1     2     1 
 DIRECT
 1.475447000000000E-003  2.164519000000000E-003  8.056640599999999E-002 T T T
 6.724518100000000E-002  0.135060332000000       8.008672900000000E-002 T T T
 0.201569202000000       1.416159000000000E-003  8.290519100000000E-002 T T T
 0.267681765000000       0.134984979000000       8.283950800000001E-002 T T T
 0.401530537000000       2.333553000000000E-003  8.501388999999999E-002 T T T
 0.467585214000000       0.136145605000000       8.481131600000000E-002 T T T
 0.601414452000000       3.408616000000000E-003  8.365086300000001E-002 T T T
 0.667423488000000       0.136891304000000       8.337201800000001E-002 T T T
 0.801824040000000       3.212526000000000E-003  8.063436700000000E-002 T T T
 0.867576357000000       0.136093017000000       8.052435300000001E-002 T T T
 4.906570000000000E-004  0.201870383000000       8.007335700000000E-002 T T T
 6.598428700000000E-002  0.334852787000000       8.148003299999999E-002 T T T
 0.200215829000000       0.200575600000000       8.143780100000000E-002 T T T
 0.266369505000000       0.333390515000000       8.405404000000000E-002 T T T
 0.400590036000000       0.202835284000000       8.504694700000000E-002 T T T
 0.466103708000000       0.337419566000000       8.806805299999999E-002 T T T
 0.600663322000000       0.203210872000000       8.486375600000000E-002 T T T
 0.666589295000000       0.337024694000000       8.585785200000000E-002 T T T
 0.800617270000000       0.202962595000000       8.199350599999999E-002 T T T
 0.866786311000000       0.336219067000000       8.274067700000000E-002 T T T
 3.429280000000000E-004  0.402306622000000       8.289050000000001E-002 T T T
 6.820157100000000E-002  0.535199655000000       8.520686800000001E-002 T T T
 0.198779337000000       0.400999231000000       8.413366400000000E-002 T T T
 0.265695492000000       0.531811768000000       9.021387800000000E-002 T T T
 0.397220876000000       0.400326069000000       8.989485899999999E-002 T T T
 0.600171481000000       0.403368721000000       8.825794800000000E-002 T T T
 0.666358865000000       0.537398876000000       8.790747900000000E-002 T T T
 0.800452798000000       0.403000490000000       8.442334300000000E-002 T T T
 0.867655264000000       0.536109127000000       8.459540100000000E-002 T T T
 1.462693000000000E-003  0.602139428000000       8.486865100000000E-002 T T T
 6.852047100000000E-002  0.735254109000000       8.508083800000001E-002 T T T
 0.202784699000000       0.600688816000000       8.836318100000000E-002 T T T
 0.268690383000000       0.734741319000000       8.884239900000000E-002 T T T
 0.472032544000000       0.738912022000000       9.038167699999999E-002 T T T
 0.604123783000000       0.606697117000000       8.981219600000000E-002 T T T
 0.670294838000000       0.737327341000000       8.465480000000000E-002 T T T
 0.800976821000000       0.603134883000000       8.515707900000000E-002 T T T
 0.868740930000000       0.736062496000000       8.346708300000000E-002 T T T
 2.228010000000000E-003  0.802069692000000       8.336808900000001E-002 T T T
 6.832026200000001E-002  0.935248839000000       8.206069600000000E-002 T T T
 0.202374722000000       0.801200918000000       8.641468300000001E-002 T T T
 0.268377248000000       0.935115039000000       8.495271100000000E-002 T T T
 0.402735830000000       0.801057456000000       8.859441000000000E-002 T T T
 0.468534432000000       0.935679711000000       8.564296400000000E-002 T T T
 0.602625270000000       0.804997785000000       8.479274400000000E-002 T T T
 0.668881116000000       0.937841329000000       8.217988900000001E-002 T T T
 0.803235227000000       0.803562137000000       8.220501400000001E-002 T T T
 0.868630147000000       0.936455311000000       8.067888600000001E-002 T T T
 0.435323311000000       0.569333390000000       0.122049890000000      T T T
 0.459604319000000       0.602942012000000       0.213711424000000      T T T
 0.530331994000000       0.550537416000000       0.244763874000000      T T T
 0.599617057000000       0.626147724000000       0.264339021000000      T T T
