 convert from PWmat
           1
   12.3000001900000       0.000000000000000E+000  0.000000000000000E+000
  -6.15000010000000        10.6521126300000       0.000000000000000E+000
  0.000000000000000E+000  0.000000000000000E+000   20.0000000000000     
 C  Cr O  H  
    48     1     1     1 
 DIRECT
 1.867756000000000E-003  2.346029000000000E-003  7.838153300000000E-002 T T T
 6.667363900000001E-002  0.134710842000000       7.917043999999999E-002 T T T
 0.202103166000000       1.333995000000000E-003  8.164772900000000E-002 T T T
 0.267577763000000       0.134745063000000       8.179057200000001E-002 T T T
 0.402123280000000       2.670819000000000E-003  8.369601200000000E-002 T T T
 0.467453654000000       0.136769049000000       8.308002800000000E-002 T T T
 0.602045225000000       4.546647000000000E-003  8.270285300000001E-002 T T T
 0.667484329000000       0.138028070000000       8.170865900000000E-002 T T T
 0.802497311000000       4.287254000000000E-003  7.873534600000000E-002 T T T
 0.867427140000000       0.136740761000000       7.896457500000000E-002 T T T
 -2.144100000000000E-004  0.201623036000000       7.959008800000000E-002 T T T
 6.483935000000000E-002  0.334300232000000       8.161653900000000E-002 T T T
 0.199409039000000       0.199730166000000       8.096793300000001E-002 T T T
 0.264448693000000       0.331696109000000       8.334736700000001E-002 T T T
 0.400491963000000       0.203626195000000       8.338037900000000E-002 T T T
 0.464839322000000       0.338376979000000       8.708467700000000E-002 T T T
 0.600598038000000       0.204612895000000       8.324689900000000E-002 T T T
 0.666129125000000       0.338499348000000       8.516506000000000E-002 T T T
 0.800550100000000       0.203877726000000       8.072355800000000E-002 T T T
 0.866395865000000       0.336886926000000       8.206581500000000E-002 T T T
 -3.275200000000000E-005  0.402429347000000       8.221998400000000E-002 T T T
 6.884930700000000E-002  0.535371817000000       8.342907400000001E-002 T T T
 0.197044542000000       0.399544322000000       8.344622400000000E-002 T T T
 0.267158947000000       0.530381537000000       8.780821300000000E-002 T T T
 0.395113206000000       0.401540072000000       8.887641500000000E-002 T T T
 0.599456735000000       0.405206134000000       8.895496300000000E-002 T T T
 0.666842090000000       0.539750482000000       9.083114700000000E-002 T T T
 0.799982000000000       0.403912987000000       8.386987200000000E-002 T T T
 0.867918217000000       0.537030776000000       8.371924800000000E-002 T T T
 1.961888000000000E-003  0.602394896000000       8.309136300000000E-002 T T T
 6.968361000000001E-002  0.735415031000000       8.316472900000001E-002 T T T
 0.203438791000000       0.599623701000000       8.662094200000001E-002 T T T
 0.270235501000000       0.734370002000000       8.839151100000001E-002 T T T
 0.474546014000000       0.738364203000000       9.533663300000000E-002 T T T
 0.605005577000000       0.610108833000000       9.709636700000000E-002 T T T
 0.673052065000000       0.740238644000000       8.813864900000000E-002 T T T
 0.801293646000000       0.604117755000000       8.521250100000000E-002 T T T
 0.869881072000000       0.736924092000000       8.240371900000000E-002 T T T
 3.145386000000000E-003  0.802338143000000       8.139751000000001E-002 T T T
 6.897890199999999E-002  0.935503896000000       8.017601600000000E-002 T T T
 0.203680991000000       0.800944360000000       8.506045000000000E-002 T T T
 0.269147678000000       0.934906376000000       8.374697600000000E-002 T T T
 0.404913793000000       0.801368571000000       9.000236200000000E-002 T T T
 0.469192583000000       0.935832295000000       8.516333600000001E-002 T T T
 0.605030512000000       0.807407702000000       8.781938900000000E-002 T T T
 0.669845355000000       0.939236094000000       8.189421800000000E-002 T T T
 0.804529747000000       0.804822629000000       8.157550500000001E-002 T T T
 0.869442273000000       0.937469957000000       7.840480900000001E-002 T T T
 0.434256099000000       0.566765185000000       0.130642605000000      T T T
 0.463792348000000       0.560955522000000       0.219219449000000      T T T
 0.545861657000000       0.584905769000000       0.237335189000000      T T T
