 convert from PWmat
           1
   12.3000001900000       0.000000000000000E+000  0.000000000000000E+000
  -6.15000010000000        10.6521126300000       0.000000000000000E+000
  0.000000000000000E+000  0.000000000000000E+000   20.0000000000000     
 C  Cr O  H  
    48     1     2     1 
 DIRECT
 2.158580000000000E-003  2.637377000000000E-003  8.073730000000000E-002 T T T
 6.691792400000000E-002  0.134950330000000       8.110908400000000E-002 T T T
 0.202281678000000       1.445726000000000E-003  8.255385300000000E-002 T T T
 0.267747475000000       0.134854219000000       8.323189100000000E-002 T T T
 0.402257187000000       2.906875000000000E-003  8.361396600000000E-002 T T T
 0.467634105000000       0.136881502000000       8.390037600000000E-002 T T T
 0.602168662000000       4.758967000000000E-003  8.238173000000000E-002 T T T
 0.667687572000000       0.138223877000000       8.224446700000000E-002 T T T
 0.802994871000000       4.775932000000000E-003  8.070692700000000E-002 T T T
 0.867737437000000       0.137068331000000       8.054836000000000E-002 T T T
 -1.806500000000000E-005  0.201784554000000       8.109117100000000E-002 T T T
 6.461276400000000E-002  0.334240887000000       8.295447300000000E-002 T T T
 0.199447048000000       0.199780872000000       8.293335900000000E-002 T T T
 0.264344247000000       0.331585265000000       8.660997400000001E-002 T T T
 0.400605939000000       0.203587696000000       8.477816500000000E-002 T T T
 0.465239902000000       0.338274929000000       8.843946200000000E-002 T T T
 0.600786743000000       0.204636367000000       8.376745700000000E-002 T T T
 0.666273298000000       0.338496954000000       8.515161200000000E-002 T T T
 0.800720250000000       0.204059526000000       8.154732700000000E-002 T T T
 0.866461957000000       0.337088665000000       8.244923600000000E-002 T T T
 -9.839500000000000E-005  0.402595019000000       8.304674900000000E-002 T T T
 6.849526200000000E-002  0.535492355000000       8.434370800000000E-002 T T T
 0.196582298000000       0.399257426000000       8.628812299999999E-002 T T T
 0.264881705000000       0.529789737000000       9.074326500000000E-002 T T T
 0.395000040000000       0.400476972000000       9.218420800000000E-002 T T T
 0.599628322000000       0.405225612000000       8.854534400000000E-002 T T T
 0.666604780000000       0.539443536000000       8.877834100000000E-002 T T T
 0.800109355000000       0.404023527000000       8.379470900000000E-002 T T T
 0.867924088000000       0.537145419000000       8.389483900000000E-002 T T T
 1.850078000000000E-003  0.602608924000000       8.378846500000001E-002 T T T
 6.963916400000000E-002  0.735597134000000       8.359718400000000E-002 T T T
 0.203079755000000       0.600165715000000       8.726682500000001E-002 T T T
 0.270223906000000       0.734589779000000       8.723122500000000E-002 T T T
 0.474909899000000       0.739230070000000       9.022668600000000E-002 T T T
 0.604882408000000       0.610139467000000       9.326910500000000E-002 T T T
 0.673198410000000       0.740530015000000       8.598231300000000E-002 T T T
 0.801198384000000       0.604119024000000       8.477951900000000E-002 T T T
 0.869879463000000       0.736993126000000       8.301893900000000E-002 T T T
 3.232155000000000E-003  0.802527984000000       8.238805600000000E-002 T T T
 6.916828899999999E-002  0.935671917000000       8.165254399999999E-002 T T T
 0.203663569000000       0.801076740000000       8.461552200000000E-002 T T T
 0.269251725000000       0.935069575000000       8.366637600000000E-002 T T T
 0.404781001000000       0.801508716000000       8.705361900000000E-002 T T T
 0.469304708000000       0.936128915000000       8.386521900000000E-002 T T T
 0.605381617000000       0.808027459000000       8.530422900000000E-002 T T T
 0.670499183000000       0.940027514000000       8.193275500000000E-002 T T T
 0.804959909000000       0.805298688000000       8.238645400000000E-002 T T T
 0.869841642000000       0.937858684000000       8.085212800000000E-002 T T T
 0.435056660000000       0.569451190000000       0.126396001000000      T T T
 0.439066038000000       0.567195857000000       0.216441194000000      T T T
 0.533056697000000       0.546964322000000       0.249376677000000      T T T
 0.599748935000000       0.633469556000000       0.256466296000000      T T T
