 convert from PWmat
           1
   12.3000001900000       0.000000000000000E+000  0.000000000000000E+000
  -6.15000010000000        10.6521126300000       0.000000000000000E+000
  0.000000000000000E+000  0.000000000000000E+000   20.0000000000000     
 C  Cr 
    48     1 
 DIRECT
 2.123723000000000E-003  1.822993000000000E-003  8.020316700000001E-002 T T T
 6.679836900000000E-002  0.134193754000000       7.979045500000000E-002 T T T
 0.202264200000000       7.618049999999999E-004  8.253013100000001E-002 T T T
 0.267655716000000       0.134203471000000       8.211750900000001E-002 T T T
 0.402297064000000       2.228917000000000E-003  8.429730100000001E-002 T T T
 0.467695890000000       0.136058338000000       8.374485199999999E-002 T T T
 0.602295280000000       4.129290000000000E-003  8.352581000000001E-002 T T T
 0.667662623000000       0.137580175000000       8.273760800000000E-002 T T T
 0.802966490000000       3.990288000000000E-003  8.070728500000000E-002 T T T
 0.867643690000000       0.136379499000000       8.015893500000000E-002 T T T
 -2.422000000000000E-006  0.201048372000000       7.974918400000000E-002 T T T
 6.481234900000001E-002  0.333643635000000       8.090168700000000E-002 T T T
 0.199395011000000       0.199001546000000       8.095065500000000E-002 T T T
 0.264751719000000       0.331212458000000       8.346499700000000E-002 T T T
 0.400639598000000       0.202534075000000       8.359689600000000E-002 T T T
 0.465572017000000       0.337140250000000       8.645044300000000E-002 T T T
 0.600782244000000       0.203882550000000       8.380496900000001E-002 T T T
 0.666391082000000       0.337847189000000       8.481885800000000E-002 T T T
 0.800759959000000       0.203371536000000       8.160681900000000E-002 T T T
 0.866562027000000       0.336498869000000       8.236785400000000E-002 T T T
 1.218000000000000E-005  0.401900448000000       8.203542400000000E-002 T T T
 6.835419600000001E-002  0.534882245000000       8.360842600000000E-002 T T T
 0.197014878000000       0.398966336000000       8.347850100000000E-002 T T T
 0.264628227000000       0.529490450000000       8.946794800000001E-002 T T T
 0.395287420000000       0.398818589000000       8.934508500000000E-002 T T T
 0.599959775000000       0.404305290000000       8.739596199999999E-002 T T T
 0.666948204000000       0.538741939000000       8.865756200000000E-002 T T T
 0.800329560000000       0.403413580000000       8.395634000000000E-002 T T T
 0.868028218000000       0.536520162000000       8.402189700000000E-002 T T T
 1.861581000000000E-003  0.601925483000000       8.366244100000000E-002 T T T
 6.965599400000000E-002  0.735020222000000       8.382461200000001E-002 T T T
 0.202961710000000       0.599800122000000       8.663396399999999E-002 T T T
 0.270073326000000       0.734171700000000       8.773018000000000E-002 T T T
 0.474696507000000       0.739536817000000       9.411278200000001E-002 T T T
 0.605284659000000       0.608896849000000       9.383406499999999E-002 T T T
 0.672936170000000       0.739431342000000       8.766118300000000E-002 T T T
 0.801522739000000       0.603549849000000       8.502338100000000E-002 T T T
 0.869895180000000       0.736482721000000       8.332543800000000E-002 T T T
 3.349199000000000E-003  0.801879476000000       8.270615000000001E-002 T T T
 6.914847900000000E-002  0.934974771000000       8.168772200000000E-002 T T T
 0.203618985000000       0.800604517000000       8.507414500000000E-002 T T T
 0.269195784000000       0.934529585000000       8.424164900000000E-002 T T T
 0.404517799000000       0.801188761000000       8.904928900000000E-002 T T T
 0.469355043000000       0.935752417000000       8.536808200000000E-002 T T T
 0.605217949000000       0.807177562000000       8.778601000000000E-002 T T T
 0.670414584000000       0.939176982000000       8.309792200000000E-002 T T T
 0.804919419000000       0.804572690000000       8.294134900000000E-002 T T T
 0.869749648000000       0.937128053000000       8.068765300000000E-002 T T T
 0.432658770000000       0.566777250000000       0.126488529000000      T T T
