 convert from PWmat
           1
   12.3000001900000       0.000000000000000E+000  0.000000000000000E+000
  -6.15000010000000        10.6521126300000       0.000000000000000E+000
  0.000000000000000E+000  0.000000000000000E+000   20.0000000000000     
 C  Cr O  
    48     1     1 
 DIRECT
 2.772629000000000E-003  2.681458000000000E-003  7.707287400000000E-002 T T T
 6.733785900000000E-002  0.134882696000000       7.759947200000000E-002 T T T
 0.202883722000000       1.357518000000000E-003  8.127261099999999E-002 T T T
 0.268170051000000       0.134792120000000       8.201985500000000E-002 T T T
 0.402858895000000       3.024612000000000E-003  8.402460500000000E-002 T T T
 0.467948825000000       0.136886770000000       8.411568400000000E-002 T T T
 0.602703405000000       5.208014000000000E-003  8.143391899999999E-002 T T T
 0.667994585000000       0.138591781000000       8.097076900000000E-002 T T T
 0.803612595000000       5.065520000000000E-003  7.680728000000001E-002 T T T
 0.868178191000000       0.137238884000000       7.715495999999999E-002 T T T
 3.809330000000000E-004  0.201802418000000       7.764542700000000E-002 T T T
 6.502573800000000E-002  0.334307290000000       8.075790800000000E-002 T T T
 0.199855805000000       0.199541567000000       8.068391499999999E-002 T T T
 0.264497076000000       0.331065847000000       8.649234000000000E-002 T T T
 0.400887644000000       0.203510324000000       8.513045100000000E-002 T T T
 0.464988148000000       0.337851350000000       9.042687300000000E-002 T T T
 0.600956728000000       0.204887720000000       8.372184900000000E-002 T T T
 0.666518446000000       0.338927754000000       8.578440000000000E-002 T T T
 0.801076101000000       0.204286353000000       7.947244600000000E-002 T T T
 0.866859393000000       0.337333237000000       8.137455600000000E-002 T T T
 2.837660000000000E-004  0.402626275000000       8.211210500000000E-002 T T T
 6.903295299999999E-002  0.535360330000000       8.518514700000000E-002 T T T
 0.196557177000000       0.398958179000000       8.654098900000000E-002 T T T
 0.265020073000000       0.528761223000000       9.458334800000000E-002 T T T
 0.394304548000000       0.399481891000000       9.447763400000000E-002 T T T
 0.599991122000000       0.405605496000000       9.039778000000000E-002 T T T
 0.667720593000000       0.540622173000000       9.030626899999999E-002 T T T
 0.800551394000000       0.404353170000000       8.388267600000000E-002 T T T
 0.868565916000000       0.537339237000000       8.405087900000000E-002 T T T
 2.416231000000000E-003  0.602428163000000       8.412208400000000E-002 T T T
 7.040158300000000E-002  0.735445681000000       8.365951200000001E-002 T T T
 0.203384197000000       0.599449640000000       9.048556100000001E-002 T T T
 0.271111000000000       0.734440316000000       9.037903400000000E-002 T T T
 0.477039648000000       0.740754540000000       9.500287000000000E-002 T T T
 0.606334178000000       0.611526864000000       9.491524200000000E-002 T T T
 0.674680499000000       0.741218846000000       8.642251300000001E-002 T T T
 0.802006331000000       0.604487857000000       8.468908400000000E-002 T T T
 0.870753437000000       0.737216858000000       8.140418000000001E-002 T T T
 4.134138000000000E-003  0.802510459000000       8.090458800000000E-002 T T T
 6.983543200000000E-002  0.935586173000000       7.936401200000000E-002 T T T
 0.204435564000000       0.800981420000000       8.571902100000001E-002 T T T
 0.269886051000000       0.935019795000000       8.382632499999999E-002 T T T
 0.406141533000000       0.802161356000000       9.032575900000001E-002 T T T
 0.469987171000000       0.936441474000000       8.468794800000000E-002 T T T
 0.606725160000000       0.809128949000000       8.645238900000000E-002 T T T
 0.671106177000000       0.940526130000000       7.995180000000000E-002 T T T
 0.806068685000000       0.805611026000000       7.992797400000000E-002 T T T
 0.870591785000000       0.938105005000000       7.677102800000001E-002 T T T
 0.435387871000000       0.569716133000000       0.129910876000000      T T T
 0.433792748000000       0.567502245000000       0.209489978000000      T T T
