 convert from PWmat
           1
   12.3000001900000       0.000000000000000E+000  0.000000000000000E+000
  -6.15000010000000        10.6521126300000       0.000000000000000E+000
  0.000000000000000E+000  0.000000000000000E+000   20.0000000000000     
 C  Co O  H  
    48     1     1     1 
 DIRECT
 1.380543000000000E-003  1.939824000000000E-003  8.189721599999999E-002 T T T
 6.706956400000000E-002  0.134822137000000       8.128143000000000E-002 T T T
 0.201591128000000       1.398831000000000E-003  8.363481400000000E-002 T T T
 0.267623549000000       0.134958193000000       8.297107600000000E-002 T T T
 0.401564134000000       2.100015000000000E-003  8.576440900000000E-002 T T T
 0.467224008000000       0.136224983000000       8.516516700000000E-002 T T T
 0.601315511000000       3.190675000000000E-003  8.517992200000001E-002 T T T
 0.667316645000000       0.136719276000000       8.466333600000001E-002 T T T
 0.801730833000000       3.096781000000000E-003  8.245482400000000E-002 T T T
 0.867492067000000       0.136053582000000       8.223025200000000E-002 T T T
 3.789760000000000E-004  0.201692831000000       8.134217900000000E-002 T T T
 6.629348100000000E-002  0.334955381000000       8.137542200000000E-002 T T T
 0.200314947000000       0.200656684000000       8.156238100000000E-002 T T T
 0.266257341000000       0.333345116000000       8.178885000000000E-002 T T T
 0.400419242000000       0.203433634000000       8.439929900000000E-002 T T T
 0.465523415000000       0.338369353000000       8.629200200000001E-002 T T T
 0.600430799000000       0.203365535000000       8.541529900000000E-002 T T T
 0.666364068000000       0.337205015000000       8.619024800000000E-002 T T T
 0.800620080000000       0.202991186000000       8.342736000000001E-002 T T T
 0.866929802000000       0.336232303000000       8.337097900000000E-002 T T T
 5.721460000000000E-004  0.402263889000000       8.242715900000000E-002 T T T
 6.908995900000001E-002  0.535103249000000       8.355316600000000E-002 T T T
 0.199149127000000       0.400868282000000       8.151281300000000E-002 T T T
 0.269430816000000       0.532422098000000       8.512879800000001E-002 T T T
 0.397638706000000       0.403374089000000       8.615772800000000E-002 T T T
 0.599637541000000       0.403811745000000       8.815060500000001E-002 T T T
 0.665258316000000       0.537772815000000       8.906423300000001E-002 T T T
 0.800239916000000       0.403037199000000       8.488880900000000E-002 T T T
 0.867459265000000       0.536199364000000       8.474367600000000E-002 T T T
 1.683099000000000E-003  0.601820913000000       8.414386000000000E-002 T T T
 6.871128100000000E-002  0.734940985000000       8.453145500000001E-002 T T T
 0.204128116000000       0.600234474000000       8.538068500000000E-002 T T T
 0.269256649000000       0.734338641000000       8.778219800000001E-002 T T T
 0.471484890000000       0.735958035000000       9.301283400000000E-002 T T T
 0.600920574000000       0.606090258000000       9.214557600000001E-002 T T T
 0.669754720000000       0.737280770000000       8.646137900000000E-002 T T T
 0.800193064000000       0.603044467000000       8.583226900000000E-002 T T T
 0.868443313000000       0.735817888000000       8.418283900000000E-002 T T T
 1.989836000000000E-003  0.801786874000000       8.374953900000000E-002 T T T
 6.830788400000000E-002  0.935082020000000       8.296647800000000E-002 T T T
 0.202577995000000       0.800911637000000       8.593725700000000E-002 T T T
 0.268429264000000       0.934808896000000       8.542088400000000E-002 T T T
 0.403242540000000       0.800191975000000       8.949734600000001E-002 T T T
 0.468490561000000       0.934998003000000       8.678559199999999E-002 T T T
 0.602553725000000       0.804502445000000       8.682210800000000E-002 T T T
 0.668489816000000       0.937268321000000       8.400612300000000E-002 T T T
 0.802492490000000       0.803014259000000       8.343965500000000E-002 T T T
 0.868434835000000       0.936264234000000       8.219840500000000E-002 T T T
 0.434386829000000       0.568502076000000       0.121145165000000      T T T
 0.478097764000000       0.591722498000000       0.209574819000000      T T T
 0.549602955000000       0.582405537000000       0.221065509000000      T T T
