 convert from PWmat
           1
   12.3000001900000       0.000000000000000E+000  0.000000000000000E+000
  -6.15000010000000        10.6521126300000       0.000000000000000E+000
  0.000000000000000E+000  0.000000000000000E+000   20.0000000000000     
 C  Co 
    48     1 
 DIRECT
 2.334571000000000E-003  1.547807000000000E-003  7.944526400000000E-002 T T T
 6.605170000000000E-002  0.133259407000000       7.935295800000000E-002 T T T
 0.202332994000000       4.774900000000000E-005  8.261916800000001E-002 T T T
 0.267205314000000       0.133092135000000       8.301074100000000E-002 T T T
 0.402397858000000       2.266747000000000E-003  8.549303699999999E-002 T T T
 0.467389135000000       0.135994886000000       8.504794300000000E-002 T T T
 0.602602634000000       5.131100000000000E-003  8.432915800000000E-002 T T T
 0.667449081000000       0.138159025000000       8.291095300000000E-002 T T T
 0.803641861000000       4.865128000000000E-003  8.027771000000000E-002 T T T
 0.867370913000000       0.136583934000000       7.940461100000000E-002 T T T
 -9.204660000000000E-004  0.200313837000000       7.927937800000000E-002 T T T
 6.287895900000000E-002  0.332311991000000       8.159599100000001E-002 T T T
 0.198035720000000       0.197053996000000       8.174661400000000E-002 T T T
 0.261615039000000       0.328110785000000       8.516172599999999E-002 T T T
 0.400004324000000       0.202147818000000       8.527391600000001E-002 T T T
 0.463680784000000       0.336412896000000       8.802492200000001E-002 T T T
 0.600338677000000       0.204442240000000       8.452874700000000E-002 T T T
 0.665618062000000       0.338426447000000       8.555895800000000E-002 T T T
 0.800330040000000       0.203654489000000       8.112990800000000E-002 T T T
 0.865833642000000       0.336574732000000       8.229887800000001E-002 T T T
 -1.106490000000000E-003  0.401456319000000       8.274350599999999E-002 T T T
 6.794634500000001E-002  0.534254390000000       8.510165900000000E-002 T T T
 0.193915732000000       0.395885054000000       8.514170800000000E-002 T T T
 0.262991628000000       0.526500271000000       8.976211400000000E-002 T T T
 0.392248306000000       0.397201480000000       8.965112800000000E-002 T T T
 0.598843603000000       0.405179310000000       8.842506999999999E-002 T T T
 0.667720850000000       0.540323698000000       8.964413100000000E-002 T T T
 0.799580492000000       0.403678068000000       8.436352100000000E-002 T T T
 0.868054620000000       0.536619246000000       8.493894400000000E-002 T T T
 1.777423000000000E-003  0.601605165000000       8.475744500000000E-002 T T T
 7.024082500000001E-002  0.734545276000000       8.450290500000000E-002 T T T
 0.202211666000000       0.597935311000000       8.814317500000000E-002 T T T
 0.270989281000000       0.733088317000000       8.880294399999999E-002 T T T
 0.477650545000000       0.741374933000000       9.387851300000000E-002 T T T
 0.607158168000000       0.611825002000000       9.356494100000000E-002 T T T
 0.676026778000000       0.742472809000000       8.861093300000000E-002 T T T
 0.801920122000000       0.603968965000000       8.618636500000000E-002 T T T
 0.870918426000000       0.736783384000000       8.394412900000001E-002 T T T
 3.964368000000000E-003  0.801640097000000       8.280832300000000E-002 T T T
 6.942945800000000E-002  0.934535137000000       8.124106400000000E-002 T T T
 0.204211887000000       0.799835662000000       8.591264899999999E-002 T T T
 0.269448684000000       0.933806182000000       8.485770500000001E-002 T T T
 0.406148788000000       0.801967740000000       9.015664000000000E-002 T T T
 0.469794814000000       0.936162016000000       8.676889200000000E-002 T T T
 0.608282660000000       0.810233333000000       8.878406899999999E-002 T T T
 0.671729910000000       0.941117302000000       8.364564900000000E-002 T T T
 0.806912847000000       0.805908093000000       8.340838000000000E-002 T T T
 0.870632517000000       0.937820774000000       8.022245000000000E-002 T T T
 0.434827714000000       0.569024737000000       9.796957300000000E-002 T T T
