 convert from PWmat
           1
   12.3000001900000       0.000000000000000E+000  0.000000000000000E+000
  -6.15000010000000        10.6521126300000       0.000000000000000E+000
  0.000000000000000E+000  0.000000000000000E+000   20.0000000000000     
 C  Co O  
    48     1     1 
 DIRECT
 2.617130000000000E-003  2.687334000000000E-003  7.964712800000000E-002 T T T
 6.811995799999999E-002  0.135469851000000       7.926414200000000E-002 T T T
 0.202908533000000       1.798704000000000E-003  8.277615100000001E-002 T T T
 0.268807847000000       0.135473467000000       8.257945500000000E-002 T T T
 0.402838451000000       2.730015000000000E-003  8.521819899999999E-002 T T T
 0.468470402000000       0.136855703000000       8.482823200000000E-002 T T T
 0.602632598000000       4.094047000000000E-003  8.366523100000001E-002 T T T
 0.668512722000000       0.137724076000000       8.308459500000000E-002 T T T
 0.803253059000000       4.028154000000000E-003  7.969687500000000E-002 T T T
 0.868638276000000       0.136694327000000       7.928053600000000E-002 T T T
 1.289928000000000E-003  0.202070598000000       7.912899100000000E-002 T T T
 6.668709100000000E-002  0.335130495000000       8.127781600000000E-002 T T T
 0.201390748000000       0.201189994000000       8.112886900000001E-002 T T T
 0.266963224000000       0.333631328000000       8.410722800000001E-002 T T T
 0.401587760000000       0.203974448000000       8.484503600000000E-002 T T T
 0.466786982000000       0.338991296000000       8.787294000000000E-002 T T T
 0.601581431000000       0.204120186000000       8.494819700000000E-002 T T T
 0.667358051000000       0.337959492000000       8.603213100000000E-002 T T T
 0.801654862000000       0.203687669000000       8.129343999999999E-002 T T T
 0.867630293000000       0.336814040000000       8.277070200000000E-002 T T T
 1.249870000000000E-003  0.402694773000000       8.296066700000000E-002 T T T
 6.965851100000001E-002  0.535466861000000       8.563853400000000E-002 T T T
 0.199138671000000       0.400599788000000       8.436055700000000E-002 T T T
 0.267314019000000       0.530999786000000       9.085075600000000E-002 T T T
 0.398081132000000       0.402910879000000       8.990105299999999E-002 T T T
 0.600768098000000       0.404534680000000       8.833097500000001E-002 T T T
 0.666343290000000       0.538480107000000       8.827793700000000E-002 T T T
 0.801215142000000       0.403701208000000       8.489600300000000E-002 T T T
 0.868481898000000       0.536817379000000       8.498299400000001E-002 T T T
 2.612113000000000E-003  0.602439082000000       8.516195000000000E-002 T T T
 6.997866899999999E-002  0.735508813000000       8.518698700000001E-002 T T T
 0.204640222000000       0.600595886000000       8.936983100000000E-002 T T T
 0.270470275000000       0.734815581000000       9.008224400000001E-002 T T T
 0.474283568000000       0.738188851000000       9.167950699999999E-002 T T T
 0.602540364000000       0.607218578000000       9.064119299999999E-002 T T T
 0.671657495000000       0.738341153000000       8.496256500000000E-002 T T T
 0.801338151000000       0.603687846000000       8.535228600000000E-002 T T T
 0.869815695000000       0.736486480000000       8.321038400000000E-002 T T T
 3.496248000000000E-003  0.802393503000000       8.311939600000000E-002 T T T
 6.963478600000000E-002  0.935681675000000       8.164582900000000E-002 T T T
 0.203961217000000       0.801346351000000       8.680750299999999E-002 T T T
 0.269779432000000       0.935327733000000       8.507186200000000E-002 T T T
 0.404669614000000       0.800773550000000       8.988668499999999E-002 T T T
 0.469854288000000       0.935746427000000       8.619492300000001E-002 T T T
 0.604682957000000       0.806172866000000       8.534048700000001E-002 T T T
 0.670189992000000       0.938624896000000       8.215330100000000E-002 T T T
 0.804104291000000       0.803934684000000       8.187542800000000E-002 T T T
 0.869837197000000       0.937190238000000       7.979976100000000E-002 T T T
 0.435762412000000       0.569601139000000       0.120717489000000      T T T
 0.428464769000000       0.581204125000000       0.202005817000000      T T T
