 convert from PWmat
           1
   12.3000001900000       0.000000000000000E+000  0.000000000000000E+000
  -6.15000010000000        10.6521126300000       0.000000000000000E+000
  0.000000000000000E+000  0.000000000000000E+000   20.0000000000000     
 C  Co O  H  
    48     1     2     1 
 DIRECT
 8.863140000000000E-004  4.585049000000000E-003  8.155633000000000E-002 T T T
 6.658707799999999E-002  0.137465386000000       8.231062000000000E-002 T T T
 0.200944307000000       3.810012000000000E-003  8.333612999999999E-002 T T T
 0.266950302000000       0.137455102000000       8.464808600000000E-002 T T T
 0.401029258000000       4.560104000000000E-003  8.466416300000000E-002 T T T
 0.466720451000000       0.138715630000000       8.577568900000000E-002 T T T
 0.600691728000000       5.751507000000000E-003  8.375339499999999E-002 T T T
 0.666659424000000       0.139385502000000       8.422242400000000E-002 T T T
 0.801120613000000       5.650369000000000E-003  8.165745900000000E-002 T T T
 0.866912212000000       0.138631389000000       8.210356900000000E-002 T T T
 -1.138590000000000E-004  0.204401908000000       8.243571399999999E-002 T T T
 6.589788700000000E-002  0.337640297000000       8.367167300000000E-002 T T T
 0.199628326000000       0.203086635000000       8.400368300000000E-002 T T T
 0.265609739000000       0.335857294000000       8.599264099999999E-002 T T T
 0.399772048000000       0.205877274000000       8.663527200000000E-002 T T T
 0.465021043000000       0.340981163000000       8.963934699999999E-002 T T T
 0.599836328000000       0.205970208000000       8.611761200000000E-002 T T T
 0.665706401000000       0.339899116000000       8.768111700000000E-002 T T T
 0.799994342000000       0.205634731000000       8.340243400000000E-002 T T T
 0.866253816000000       0.338950051000000       8.425095700000000E-002 T T T
 -4.191600000000000E-005  0.404915615000000       8.413532700000000E-002 T T T
 6.844806600000000E-002  0.537802883000000       8.498395100000000E-002 T T T
 0.198813852000000       0.403690207000000       8.545034400000000E-002 T T T
 0.268934222000000       0.535292915000000       8.911152200000000E-002 T T T
 0.396287868000000       0.404805304000000       9.130932500000000E-002 T T T
 0.599097256000000       0.406428390000000       9.011028800000000E-002 T T T
 0.664469308000000       0.540473250000000       8.947442799999999E-002 T T T
 0.799633634000000       0.405751327000000       8.597285700000000E-002 T T T
 0.866837867000000       0.538831125000000       8.545428800000000E-002 T T T
 1.013762000000000E-003  0.604503358000000       8.454031300000001E-002 T T T
 6.819016000000000E-002  0.737709148000000       8.394959000000000E-002 T T T
 0.203652496000000       0.603091074000000       8.695530000000000E-002 T T T
 0.268650219000000       0.736968650000000       8.700876000000000E-002 T T T
 0.470515314000000       0.737444341000000       9.084439100000000E-002 T T T
 0.600948507000000       0.609529549000000       9.146633300000000E-002 T T T
 0.669495667000000       0.739980021000000       8.498154800000000E-002 T T T
 0.799548832000000       0.605707588000000       8.603861800000000E-002 T T T
 0.867953792000000       0.738516858000000       8.374553799999999E-002 T T T
 1.652783000000000E-003  0.804509702000000       8.292082900000000E-002 T T T
 6.780793000000000E-002  0.937660663000000       8.221663500000000E-002 T T T
 0.201979319000000       0.803556681000000       8.477209099999999E-002 T T T
 0.267820457000000       0.937337515000000       8.416093600000001E-002 T T T
 0.402374669000000       0.802229785000000       8.751738600000000E-002 T T T
 0.467794120000000       0.937282813000000       8.492795700000000E-002 T T T
 0.601850670000000       0.806868080000000       8.487928900000000E-002 T T T
 0.667880455000000       0.939701450000000       8.261430100000000E-002 T T T
 0.802288506000000       0.805830614000000       8.261330800000000E-002 T T T
 0.867974531000000       0.938902691000000       8.143627400000000E-002 T T T
 0.433996129000000       0.572647983000000       0.122279627000000      T T T
 0.465637911000000       0.562625341000000       0.207971639000000      T T T
 0.538716248000000       0.509235186000000       0.235455628000000      T T T
 0.616730233000000       0.585599993000000       0.246769864000000      T T T
