 convert from PWmat
           1
   12.3000001900000       0.000000000000000E+000  0.000000000000000E+000
  -6.15000010000000        10.6521126300000       0.000000000000000E+000
  0.000000000000000E+000  0.000000000000000E+000   20.0000000000000     
 C  V  O  
    48     1     1 
 DIRECT
 2.893505000000000E-003  2.736713000000000E-003  7.618906600000000E-002 T T T
 6.749781800000000E-002  0.135001490000000       7.739002600000000E-002 T T T
 0.202866220000000       1.402452000000000E-003  8.047843800000000E-002 T T T
 0.268186359000000       0.134733031000000       8.187169300000000E-002 T T T
 0.402708739000000       2.960030000000000E-003  8.330987400000001E-002 T T T
 0.468103391000000       0.136727986000000       8.342999800000001E-002 T T T
 0.602729013000000       5.123596000000000E-003  8.073992300000001E-002 T T T
 0.668107043000000       0.138507214000000       7.985340700000000E-002 T T T
 0.803605508000000       5.055002000000000E-003  7.612205800000001E-002 T T T
 0.868246869000000       0.137346861000000       7.626391200000000E-002 T T T
 5.107140000000000E-004  0.201949607000000       7.743342300000000E-002 T T T
 6.509360300000000E-002  0.334399688000000       8.115536600000001E-002 T T T
 0.199970833000000       0.199617347000000       8.106782700000000E-002 T T T
 0.264754056000000       0.331156724000000       8.757184599999999E-002 T T T
 0.400971055000000       0.203111118000000       8.498369200000000E-002 T T T
 0.465147160000000       0.337086624000000       9.095624099999999E-002 T T T
 0.601117495000000       0.204798273000000       8.290493400000000E-002 T T T
 0.666623840000000       0.338754190000000       8.529670600000000E-002 T T T
 0.801148108000000       0.204327917000000       7.838641100000000E-002 T T T
 0.866899594000000       0.337284190000000       8.058052400000000E-002 T T T
 2.174950000000000E-004  0.402622817000000       8.198622400000000E-002 T T T
 6.861091100000000E-002  0.535422987000000       8.506141700000000E-002 T T T
 0.196636324000000       0.399187435000000       8.763162800000000E-002 T T T
 0.264027221000000       0.529134858000000       9.582971200000000E-002 T T T
 0.394723126000000       0.398557550000000       9.569371900000000E-002 T T T
 0.600215637000000       0.405327199000000       9.065710700000000E-002 T T T
 0.668441415000000       0.540412835000000       9.068178200000000E-002 T T T
 0.800554312000000       0.404197486000000       8.316715299999999E-002 T T T
 0.868505613000000       0.537177619000000       8.328914699999999E-002 T T T
 2.263284000000000E-003  0.602578451000000       8.341025300000000E-002 T T T
 7.032686700000000E-002  0.735612076000000       8.283909000000000E-002 T T T
 0.202585198000000       0.599589139000000       9.106291900000001E-002 T T T
 0.270820487000000       0.734638714000000       9.068081600000000E-002 T T T
 0.476687575000000       0.741785191000000       9.606551900000000E-002 T T T
 0.607388354000000       0.611185324000000       9.600682700000000E-002 T T T
 0.674556030000000       0.740964836000000       8.703087599999999E-002 T T T
 0.802256424000000       0.604431557000000       8.421791900000000E-002 T T T
 0.870697199000000       0.737245034000000       8.068353600000000E-002 T T T
 4.077649000000000E-003  0.802636214000000       7.975127100000000E-002 T T T
 6.991037800000000E-002  0.935674452000000       7.827601800000000E-002 T T T
 0.204281443000000       0.801083380000000       8.524699099999999E-002 T T T
 0.269754356000000       0.935017604000000       8.311376199999999E-002 T T T
 0.405923995000000       0.802857374000000       9.071942099999999E-002 T T T
 0.469933430000000       0.936671953000000       8.425813200000000E-002 T T T
 0.606469786000000       0.808987433000000       8.705560200000000E-002 T T T
 0.671081647000000       0.940360657000000       7.966083200000000E-002 T T T
 0.805921641000000       0.805574647000000       7.963855200000000E-002 T T T
 0.870596642000000       0.938081325000000       7.609132100000000E-002 T T T
 0.435392104000000       0.569777896000000       0.133468849000000      T T T
 0.433716262000000       0.567736043000000       0.214649036000000      T T T
