 convert from PWmat
           1
   12.3000001900000       0.000000000000000E+000  0.000000000000000E+000
  -6.15000010000000        10.6521126300000       0.000000000000000E+000
  0.000000000000000E+000  0.000000000000000E+000   20.0000000000000     
 C  V  O  H  
    48     1     1     1 
 DIRECT
 2.898702000000000E-003  2.341536000000000E-003  7.996364300000000E-002 T T T
 6.794423700000000E-002  0.134888848000000       8.151031500000000E-002 T T T
 0.203025559000000       1.287225000000000E-003  8.249745900000000E-002 T T T
 0.268556773000000       0.134833038000000       8.267262000000000E-002 T T T
 0.402956944000000       2.616688000000000E-003  8.309278800000000E-002 T T T
 0.468509312000000       0.136417685000000       8.209253000000000E-002 T T T
 0.602815385000000       4.213382000000000E-003  8.185199000000000E-002 T T T
 0.668598160000000       0.137764336000000       8.132416400000000E-002 T T T
 0.803558103000000       4.186178000000000E-003  7.902076700000001E-002 T T T
 0.868683981000000       0.136748903000000       8.027327600000000E-002 T T T
 1.209467000000000E-003  0.201732053000000       8.189124000000000E-002 T T T
 6.640673800000001E-002  0.334374283000000       8.502550400000000E-002 T T T
 0.200652268000000       0.200082726000000       8.337621300000000E-002 T T T
 0.266476728000000       0.332301281000000       8.718824100000000E-002 T T T
 0.401409195000000       0.202961829000000       8.286990100000000E-002 T T T
 0.466722591000000       0.337497295000000       8.580911300000001E-002 T T T
 0.601627879000000       0.203938768000000       8.186615500000000E-002 T T T
 0.667451292000000       0.337908876000000       8.270204900000000E-002 T T T
 0.801753677000000       0.203735580000000       8.140241900000000E-002 T T T
 0.867750888000000       0.336822953000000       8.263588600000001E-002 T T T
 1.258074000000000E-003  0.402328116000000       8.466516600000000E-002 T T T
 6.951815600000000E-002  0.535198724000000       8.624030900000000E-002 T T T
 0.198653407000000       0.400094974000000       8.890217300000000E-002 T T T
 0.266607926000000       0.530936047000000       9.433236100000000E-002 T T T
 0.397523400000000       0.400090123000000       9.018832300000000E-002 T T T
 0.601014905000000       0.404256006000000       8.511541400000000E-002 T T T
 0.667584428000000       0.538516129000000       8.495742700000000E-002 T T T
 0.801473229000000       0.403654080000000       8.247157099999999E-002 T T T
 0.869018364000000       0.536671939000000       8.246368499999999E-002 T T T
 2.863287000000000E-003  0.602251221000000       8.393747400000000E-002 T T T
 7.024417400000001E-002  0.735340270000000       8.388712299999999E-002 T T T
 0.204060341000000       0.600414338000000       9.061498300000000E-002 T T T
 0.270705191000000       0.734776879000000       8.952361800000000E-002 T T T
 0.474713925000000       0.738700129000000       9.089132100000000E-002 T T T
 0.604964700000000       0.608163434000000       8.811328100000000E-002 T T T
 0.673013380000000       0.739088085000000       8.331737500000000E-002 T T T
 0.802270503000000       0.603614608000000       8.212933100000000E-002 T T T
 0.870385766000000       0.736472259000000       8.096192100000001E-002 T T T
 3.969434000000000E-003  0.802238796000000       8.173269900000001E-002 T T T
 6.988960100000000E-002  0.935362493000000       8.146133100000000E-002 T T T
 0.204249598000000       0.801095052000000       8.579301200000000E-002 T T T
 0.269918679000000       0.935068174000000       8.383218900000000E-002 T T T
 0.405140372000000       0.801350979000000       8.839392600000000E-002 T T T
 0.469985173000000       0.935937775000000       8.392281600000000E-002 T T T
 0.605239919000000       0.806929330000000       8.423002800000000E-002 T T T
 0.670789681000000       0.939065576000000       8.082209799999999E-002 T T T
 0.805181515000000       0.804471423000000       8.008033100000000E-002 T T T
 0.870292267000000       0.937245479000000       7.885068600000000E-002 T T T
 0.438291973000000       0.569091064000000       0.128683747000000      T T T
 0.441922067000000       0.560159357000000       0.218090219000000      T T T
 0.518236810000000       0.593352949000000       0.244443218000000      T T T
