 convert from PWmat
           1
   12.3000001900000       0.000000000000000E+000  0.000000000000000E+000
  -6.15000010000000        10.6521126300000       0.000000000000000E+000
  0.000000000000000E+000  0.000000000000000E+000   20.0000000000000     
 C  V  O  H  
    48     1     2     1 
 DIRECT
 3.060781000000000E-003  2.812175000000000E-003  7.990196800000000E-002 T T T
 6.821290200000001E-002  0.135349339000000       8.133543400000000E-002 T T T
 0.203272651000000       1.850797000000000E-003  8.230869800000000E-002 T T T
 0.268909153000000       0.135500492000000       8.384194100000000E-002 T T T
 0.403192531000000       3.380889000000000E-003  8.322830000000001E-002 T T T
 0.468844282000000       0.137423087000000       8.356118400000000E-002 T T T
 0.602898099000000       4.440478000000000E-003  8.217987200000000E-002 T T T
 0.668719738000000       0.138057698000000       8.169777600000000E-002 T T T
 0.803546403000000       4.176269000000000E-003  7.960270500000000E-002 T T T
 0.868852812000000       0.136869044000000       7.998862000000000E-002 T T T
 1.492433000000000E-003  0.202191703000000       8.137836900000001E-002 T T T
 6.683647400000001E-002  0.335019725000000       8.452921200000001E-002 T T T
 0.200813010000000       0.200488926000000       8.431289400000000E-002 T T T
 0.266175863000000       0.332524672000000       8.955604400000000E-002 T T T
 0.401828349000000       0.204283786000000       8.545680800000000E-002 T T T
 0.466627054000000       0.339035139000000       9.012196100000000E-002 T T T
 0.601917604000000       0.204594871000000       8.335447700000000E-002 T T T
 0.667515656000000       0.338532457000000       8.481671700000000E-002 T T T
 0.801938370000000       0.203976590000000       8.113710200000000E-002 T T T
 0.867953914000000       0.337227468000000       8.243594400000000E-002 T T T
 1.551556000000000E-003  0.402985747000000       8.407066200000000E-002 T T T
 7.039838100000000E-002  0.535914304000000       8.570492000000000E-002 T T T
 0.198766339000000       0.400428388000000       8.993318400000000E-002 T T T
 0.268380571000000       0.531569579000000       9.580505800000000E-002 T T T
 0.396712263000000       0.401474452000000       9.499601100000001E-002 T T T
 0.601192177000000       0.404966300000000       8.877131700000000E-002 T T T
 0.668628024000000       0.539200089000000       8.787108700000000E-002 T T T
 0.801615573000000       0.404141781000000       8.331333000000000E-002 T T T
 0.869576057000000       0.537168111000000       8.296167900000000E-002 T T T
 3.564051000000000E-003  0.602855277000000       8.356610900000000E-002 T T T
 7.074293199999999E-002  0.736013589000000       8.335546100000001E-002 T T T
 0.205138631000000       0.600871411000000       9.065190300000001E-002 T T T
 0.270856898000000       0.735106330000000       8.928771900000000E-002 T T T
 0.473966042000000       0.739024560000000       9.280655500000000E-002 T T T
 0.606344343000000       0.608641571000000       9.123654200000000E-002 T T T
 0.673270604000000       0.739068391000000       8.538876700000000E-002 T T T
 0.802929346000000       0.604191335000000       8.334447000000000E-002 T T T
 0.870830960000000       0.737101766000000       8.166151000000001E-002 T T T
 4.405825000000000E-003  0.802890272000000       8.158198400000000E-002 T T T
 7.018348600000000E-002  0.935969147000000       8.103897200000000E-002 T T T
 0.204525395000000       0.801567129000000       8.496394600000000E-002 T T T
 0.270106054000000       0.935497292000000       8.338237100000000E-002 T T T
 0.404782149000000       0.802028732000000       8.898935700000001E-002 T T T
 0.470012066000000       0.936494069000000       8.407636800000000E-002 T T T
 0.605015573000000       0.806645346000000       8.615518799999999E-002 T T T
 0.670706194000000       0.938910303000000       8.174271900000001E-002 T T T
 0.805577580000000       0.804951704000000       8.119514400000000E-002 T T T
 0.870515306000000       0.937544627000000       7.947865100000000E-002 T T T
 0.440566004000000       0.574706818000000       0.133250874000000      T T T
 0.411595761000000       0.572084605000000       0.224942723000000      T T T
 0.513238043000000       0.541863849000000       0.228675887000000      T T T
 0.584758360000000       0.620126347000000       0.244980310000000      T T T
