 convert from PWmat
           1
   12.3000001900000       0.000000000000000E+000  0.000000000000000E+000
  -6.15000010000000        10.6521126300000       0.000000000000000E+000
  0.000000000000000E+000  0.000000000000000E+000   20.0000000000000     
 C  V  
    48     1 
 DIRECT
 2.019581000000000E-003  1.988786000000000E-003  8.062992200000001E-002 T T T
 6.719808700000000E-002  0.134585870000000       8.010726000000000E-002 T T T
 0.202094456000000       1.048978000000000E-003  8.313346300000000E-002 T T T
 0.267860991000000       0.134508521000000       8.262552200000001E-002 T T T
 0.402171606000000       2.303809000000000E-003  8.516522900000000E-002 T T T
 0.467790635000000       0.135991829000000       8.469018800000000E-002 T T T
 0.602072834000000       3.826554000000000E-003  8.400241999999999E-002 T T T
 0.667833120000000       0.137296599000000       8.344363400000000E-002 T T T
 0.802633905000000       3.664303000000000E-003  8.122740300000000E-002 T T T
 0.867801597000000       0.136267018000000       8.057002000000001E-002 T T T
 3.838060000000000E-004  0.201435204000000       8.003874599999999E-002 T T T
 6.545664800000001E-002  0.334156845000000       8.117005400000001E-002 T T T
 0.199924121000000       0.199664430000000       8.130171600000000E-002 T T T
 0.265902232000000       0.332230890000000       8.309987200000001E-002 T T T
 0.400829526000000       0.202507165000000       8.409398400000000E-002 T T T
 0.466163136000000       0.337050604000000       8.598676900000000E-002 T T T
 0.600954375000000       0.203463897000000       8.455377200000000E-002 T T T
 0.666784546000000       0.337412947000000       8.510618800000000E-002 T T T
 0.800981579000000       0.203152871000000       8.209695800000000E-002 T T T
 0.866838076000000       0.336325474000000       8.283655500000001E-002 T T T
 3.024950000000000E-004  0.402092216000000       8.238968900000000E-002 T T T
 6.832696500000000E-002  0.535068957000000       8.394635000000000E-002 T T T
 0.198012771000000       0.400123222000000       8.308248900000000E-002 T T T
 0.265855639000000       0.531137215000000       8.762085500000000E-002 T T T
 0.396926635000000       0.400037061000000       8.752237700000000E-002 T T T
 0.600433031000000       0.403771756000000       8.691377400000000E-002 T T T
 0.666998108000000       0.538069545000000       8.756875400000000E-002 T T T
 0.800711003000000       0.403233829000000       8.444065100000001E-002 T T T
 0.868101161000000       0.536397893000000       8.469116900000000E-002 T T T
 1.788942000000000E-003  0.602007174000000       8.443202599999999E-002 T T T
 6.924543300000000E-002  0.735168563000000       8.448416800000000E-002 T T T
 0.202873078000000       0.600388903000000       8.610419300000000E-002 T T T
 0.269543897000000       0.734639937000000       8.727847000000000E-002 T T T
 0.473011569000000       0.738205912000000       9.104446900000000E-002 T T T
 0.603951091000000       0.607212601000000       9.072004800000000E-002 T T T
 0.671899611000000       0.738265342000000       8.635024700000000E-002 T T T
 0.801543246000000       0.603331654000000       8.515177500000000E-002 T T T
 0.869597846000000       0.736275057000000       8.371288200000000E-002 T T T
 3.068920000000000E-003  0.802041777000000       8.334917300000000E-002 T T T
 6.892801200000000E-002  0.935191812000000       8.221092500000000E-002 T T T
 0.203190341000000       0.800998247000000       8.539759900000000E-002 T T T
 0.269005779000000       0.934923703000000       8.487750600000001E-002 T T T
 0.403850813000000       0.801236128000000       8.806620100000000E-002 T T T
 0.469131702000000       0.935774124000000       8.564678700000000E-002 T T T
 0.604043997000000       0.806140956000000       8.648750900000000E-002 T T T
 0.669932566000000       0.938587657000000       8.333857400000000E-002 T T T
 0.804335059000000       0.804113796000000       8.317947900000000E-002 T T T
 0.869432351000000       0.936822890000000       8.120407100000000E-002 T T T
 0.432925893000000       0.567004699000000       0.127337221000000      T T T
